.Version 9.10.5 of ABINIT

 ABINIT is a project of the Universite Catholique de Louvain,
 Corning Inc. and other collaborators, see ~abinit/doc/developers/contributors.txt .
 acknowledgments of the ABINIT effort.

.Starting date : Fri 15 Mar 2024.
- ( at 15h00 )

- input  file    -> /gpfs/projects/acad/leds/DataBase_examples/adding_entry_to_DB/flow_lumi/w0/t4/run.abi
- output file    -> /gpfs/projects/acad/leds/DataBase_examples/adding_entry_to_DB/flow_lumi/w0/t4/run.abo
- root for input  files -> indata/in
- root for output files -> outdata/out

- inpspheads : Reading pseudopotential header in XML form from
-   /gpfs/home/acad/ucl-modl/jbouq/paw-sr-11_pbe_standard_xml/Eu.xml
- inpspheads : Reading pseudopotential header in XML form from
-   /gpfs/home/acad/ucl-modl/jbouq/paw-sr-11_pbe_standard_xml/Sr.xml
- inpspheads : Reading pseudopotential header in XML form from
-   /gpfs/home/acad/ucl-modl/jbouq/paw-sr-11_pbe_standard_xml/Li.xml
- inpspheads : Reading pseudopotential header in XML form from
-   /gpfs/home/acad/ucl-modl/jbouq/paw-sr-11_pbe_standard_xml/Al.xml
- inpspheads : Reading pseudopotential header in XML form from
-   /gpfs/home/acad/ucl-modl/jbouq/paw-sr-11_pbe_standard_xml/N.xml
- inpspheads : Reading pseudopotential header in XML form from
-   /gpfs/home/acad/ucl-modl/jbouq/paw-sr-11_pbe_standard_xml/O.xml

 Symmetries : space group P2/m (# 10); Bravais mP (primitive monocl.)
     intxc =       0    ionmov =       0      iscf =      17    lmnmax =      32
     lnmax =       8     mgfft =      54  mpssoang =       4    mqgrid =    3641
     natom =      54  nloc_mem =       2    nspden =       2   nspinor =       1
    nsppol =       2      nsym =       4    n1xccc =       1    ntypat =       6
    occopt =       2   xclevel =       2
-    mband =         180        mffmem =           1         mkmem =           1
       mpw =          51          nfft =       19440          nkpt =           1
Pmy_natom=         3
 PAW method is used; the additional fine FFT grid is defined by:
   mgfftf=        90    nfftf =     54000
  Rough estimation (10% accuracy) of disk space for files :

------------- Echo of variables that govern the present computation ------------
-
- outvars: echo of selected default values
-   iomode0 =  0 , fftalg0 =312 , wfoptalg0 = 10
-
- outvars: echo of global parameters not present in the input file
-  max_nthreads =    0
-
 -outvars: echo values of preprocessed input variables --------
-          iomode           1
            acell      1.0000000000E+00  1.0000000000E+00  1.0000000000E+00 Bohr
              amu      1.51965000E+02  8.76200000E+01  6.94100000E+00
                       2.69815390E+01  1.40067400E+01  1.59994000E+01
        autoparal           1
           bandpp           6
          chkprim           0
      chksymbreak           0
     densfor_pred           6
           diemac      5.00000000E+00
             ecut      1.00000000E+01 Hartree
-          fftalg         312
           irdden           1
           istwfk        2
              ixc     -101130
            jpawu      2.57245278E-02  0.00000000E+00  0.00000000E+00  0.00000000E+00  0.00000000E+00  0.00000000E+00 Hartree
         kptrlatt        1    0    0      0    1    0      0    0    1
          kptrlen      1.48514103E+01
            lpawu           3      -1      -1      -1      -1      -1
P           mkmem           1
            natom          54
            nband         180     180
           nbdbuf          30
            ngfft          45      48      54
          ngfftdg          60      60      90
             nkpt           1
-          npband          10
-           npfft           6
-        np_spkpt           2
           nspden           2
           nsppol           2
            nstep         300
             nsym           4
           ntypat           6
              occ      1.000000  1.000000  1.000000  1.000000  1.000000  1.000000
                       1.000000  1.000000  1.000000  1.000000  1.000000  1.000000
                       1.000000  1.000000  1.000000  1.000000  1.000000  1.000000
                       1.000000  1.000000  1.000000  1.000000  1.000000  1.000000
                       1.000000  1.000000  1.000000  1.000000  1.000000  1.000000
                       1.000000  1.000000  1.000000  1.000000  1.000000  1.000000
                       1.000000  1.000000  1.000000  1.000000  1.000000  1.000000
                       1.000000  1.000000  1.000000  1.000000  1.000000  1.000000
                       1.000000  1.000000  1.000000  1.000000  1.000000  1.000000
                       1.000000  1.000000  1.000000  1.000000  1.000000  1.000000
                       1.000000  1.000000  1.000000  1.000000  1.000000  1.000000
                       1.000000  1.000000  1.000000  1.000000  1.000000  1.000000
                       1.000000  1.000000  1.000000  1.000000  1.000000  1.000000
                       1.000000  1.000000  1.000000  1.000000  1.000000  1.000000
                       1.000000  1.000000  1.000000  1.000000  1.000000  1.000000
                       1.000000  1.000000  1.000000  1.000000  1.000000  1.000000
                       1.000000  1.000000  1.000000  1.000000  1.000000  1.000000
                       1.000000  1.000000  1.000000  1.000000  1.000000  1.000000
                       1.000000  1.000000  1.000000  1.000000  1.000000  1.000000
                       1.000000  1.000000  1.000000  1.000000  1.000000  1.000000
                       1.000000  1.000000  1.000000  1.000000  1.000000  1.000000
                       1.000000  1.000000  1.000000  1.000000  1.000000  1.000000
                       1.000000  1.000000  1.000000  1.000000  1.000000  1.000000
                       0.000000  1.000000  0.000000  0.000000  0.000000  0.000000
                       0.000000  0.000000  0.000000  0.000000  0.000000  0.000000
                       0.000000  0.000000  0.000000  0.000000  0.000000  0.000000
                       0.000000  0.000000  0.000000  0.000000  0.000000  0.000000
                       0.000000  0.000000  0.000000  0.000000  0.000000  0.000000
                       0.000000  0.000000  0.000000  0.000000  0.000000  0.000000
                       0.000000  0.000000  0.000000  0.000000  0.000000  0.000000
                       1.000000  1.000000  1.000000  1.000000  1.000000  1.000000
                       1.000000  1.000000  1.000000  1.000000  1.000000  1.000000
                       1.000000  1.000000  1.000000  1.000000  1.000000  1.000000
                       1.000000  1.000000  1.000000  1.000000  1.000000  1.000000
                       1.000000  1.000000  1.000000  1.000000  1.000000  1.000000
                       1.000000  1.000000  1.000000  1.000000  1.000000  1.000000
                       1.000000  1.000000  1.000000  1.000000  1.000000  1.000000
                       1.000000  1.000000  1.000000  1.000000  1.000000  1.000000
                       1.000000  1.000000  1.000000  1.000000  1.000000  1.000000
                       1.000000  1.000000  1.000000  1.000000  1.000000  1.000000
                       1.000000  1.000000  1.000000  1.000000  1.000000  1.000000
                       1.000000  1.000000  1.000000  1.000000  1.000000  1.000000
                       1.000000  1.000000  1.000000  1.000000  1.000000  1.000000
                       1.000000  1.000000  1.000000  1.000000  1.000000  1.000000
                       1.000000  1.000000  1.000000  1.000000  1.000000  1.000000
                       1.000000  1.000000  1.000000  1.000000  1.000000  1.000000
                       1.000000  1.000000  1.000000  1.000000  1.000000  1.000000
                       1.000000  1.000000  1.000000  1.000000  1.000000  1.000000
                       1.000000  1.000000  1.000000  1.000000  1.000000  1.000000
                       1.000000  1.000000  1.000000  1.000000  1.000000  1.000000
                       1.000000  1.000000  1.000000  1.000000  1.000000  1.000000
                       1.000000  1.000000  1.000000  1.000000  1.000000  1.000000
                       0.000000  0.000000  0.000000  0.000000  0.000000  0.000000
                       0.000000  0.000000  0.000000  0.000000  0.000000  0.000000
                       0.000000  0.000000  0.000000  0.000000  0.000000  0.000000
                       0.000000  0.000000  0.000000  0.000000  0.000000  0.000000
                       0.000000  0.000000  0.000000  0.000000  0.000000  0.000000
                       0.000000  0.000000  0.000000  0.000000  0.000000  0.000000
                       0.000000  0.000000  0.000000  0.000000  0.000000  0.000000
                       0.000000  0.000000  0.000000  0.000000  0.000000  0.000000
           occopt           2
        paral_kgb           1
        pawecutdg      2.00000000E+01 Hartree
         pawmixdg           1
            prtwf           0
            rprim      1.4852017170E+01  7.2879070107E-05  0.0000000000E+00
                       7.2879070106E-05  1.4851410311E+01  0.0000000000E+00
                       0.0000000000E+00  0.0000000000E+00  1.8084519032E+01
          spgroup          10
           spinat      0.0000000000E+00  0.0000000000E+00  7.0000000000E+00
                       0.0000000000E+00  0.0000000000E+00  0.0000000000E+00
                       0.0000000000E+00  0.0000000000E+00  0.0000000000E+00
                       0.0000000000E+00  0.0000000000E+00  0.0000000000E+00
                       0.0000000000E+00  0.0000000000E+00  0.0000000000E+00
                       0.0000000000E+00  0.0000000000E+00  0.0000000000E+00
                       0.0000000000E+00  0.0000000000E+00  0.0000000000E+00
                       0.0000000000E+00  0.0000000000E+00  0.0000000000E+00
                       0.0000000000E+00  0.0000000000E+00  0.0000000000E+00
                       0.0000000000E+00  0.0000000000E+00  0.0000000000E+00
                       0.0000000000E+00  0.0000000000E+00  0.0000000000E+00
                       0.0000000000E+00  0.0000000000E+00  0.0000000000E+00
                       0.0000000000E+00  0.0000000000E+00  0.0000000000E+00
                       0.0000000000E+00  0.0000000000E+00  0.0000000000E+00
                       0.0000000000E+00  0.0000000000E+00  0.0000000000E+00
                       0.0000000000E+00  0.0000000000E+00  0.0000000000E+00
                       0.0000000000E+00  0.0000000000E+00  0.0000000000E+00
                       0.0000000000E+00  0.0000000000E+00  0.0000000000E+00
                       0.0000000000E+00  0.0000000000E+00  0.0000000000E+00
                       0.0000000000E+00  0.0000000000E+00  0.0000000000E+00
                       0.0000000000E+00  0.0000000000E+00  0.0000000000E+00
                       0.0000000000E+00  0.0000000000E+00  0.0000000000E+00
                       0.0000000000E+00  0.0000000000E+00  0.0000000000E+00
                       0.0000000000E+00  0.0000000000E+00  0.0000000000E+00
                       0.0000000000E+00  0.0000000000E+00  0.0000000000E+00
                       0.0000000000E+00  0.0000000000E+00  0.0000000000E+00
[...]
                       0.0000000000E+00  0.0000000000E+00  0.0000000000E+00
                       0.0000000000E+00  0.0000000000E+00  0.0000000000E+00
                       0.0000000000E+00  0.0000000000E+00  0.0000000000E+00
                       0.0000000000E+00  0.0000000000E+00  0.0000000000E+00
                       0.0000000000E+00  0.0000000000E+00  0.0000000000E+00
                       0.0000000000E+00  0.0000000000E+00  0.0000000000E+00
                       0.0000000000E+00  0.0000000000E+00  0.0000000000E+00
                       0.0000000000E+00  0.0000000000E+00  0.0000000000E+00
                       0.0000000000E+00  0.0000000000E+00  0.0000000000E+00
                       0.0000000000E+00  0.0000000000E+00  0.0000000000E+00
                       0.0000000000E+00  0.0000000000E+00  0.0000000000E+00
                       0.0000000000E+00  0.0000000000E+00  0.0000000000E+00
                       0.0000000000E+00  0.0000000000E+00  0.0000000000E+00
                       0.0000000000E+00  0.0000000000E+00  0.0000000000E+00
                       0.0000000000E+00  0.0000000000E+00  0.0000000000E+00
                       0.0000000000E+00  0.0000000000E+00  0.0000000000E+00
                       0.0000000000E+00  0.0000000000E+00  0.0000000000E+00
                       0.0000000000E+00  0.0000000000E+00  0.0000000000E+00
                       0.0000000000E+00  0.0000000000E+00  0.0000000000E+00
                       0.0000000000E+00  0.0000000000E+00  0.0000000000E+00
                       0.0000000000E+00  0.0000000000E+00  0.0000000000E+00
                       0.0000000000E+00  0.0000000000E+00  0.0000000000E+00
                       0.0000000000E+00  0.0000000000E+00  0.0000000000E+00
                       0.0000000000E+00  0.0000000000E+00  0.0000000000E+00
                       0.0000000000E+00  0.0000000000E+00  0.0000000000E+00
                       0.0000000000E+00  0.0000000000E+00  0.0000000000E+00
                       0.0000000000E+00  0.0000000000E+00  0.0000000000E+00
                       0.0000000000E+00  0.0000000000E+00  0.0000000000E+00
                       0.0000000000E+00  0.0000000000E+00  0.0000000000E+00
                       0.0000000000E+00  0.0000000000E+00  0.0000000000E+00
                       0.0000000000E+00  0.0000000000E+00  0.0000000000E+00
                       0.0000000000E+00  0.0000000000E+00  0.0000000000E+00
                       0.0000000000E+00  0.0000000000E+00  0.0000000000E+00
                       0.0000000000E+00  0.0000000000E+00  0.0000000000E+00
                       0.0000000000E+00  0.0000000000E+00  0.0000000000E+00
                       0.0000000000E+00  0.0000000000E+00  0.0000000000E+00
                       0.0000000000E+00  0.0000000000E+00  0.0000000000E+00
                       0.0000000000E+00  0.0000000000E+00  0.0000000000E+00
                       0.0000000000E+00  0.0000000000E+00  0.0000000000E+00
                       0.0000000000E+00  0.0000000000E+00  0.0000000000E+00
                       0.0000000000E+00  0.0000000000E+00  0.0000000000E+00
                       0.0000000000E+00  0.0000000000E+00  0.0000000000E+00
           strten      2.2724854611E-03  2.2871883446E-03  2.3437468028E-03
                       0.0000000000E+00  0.0000000000E+00 -2.7737646212E-06
           symrel      1  0  0   0  1  0   0  0  1      -1  0  0   0 -1  0   0  0 -1
                      -1  0  0   0 -1  0   0  0  1       1  0  0   0  1  0   0  0 -1
            tnons      0.0000000  0.0000000  0.0000000    -0.0000000  0.0000000  0.3333333
                      -0.0000000  0.0000000  0.0000000     0.0000000  0.0000000  0.3333333
           toldfe      1.00000000E-05 Hartree
            typat      1  2  2  2  2  2  3  3  3  3  3  3  3  3  3  3  3  3  4  4
                       4  4  4  4  4  4  4  4  4  4  5  5  5  5  5  5  5  5  5  5
                       5  5  6  6  6  6  6  6  6  6  6  6  6  6
            upawu      2.57245278E-01  0.00000000E+00  0.00000000E+00  0.00000000E+00  0.00000000E+00  0.00000000E+00 Hartree
          usepawu           1
           useylm           1
         wfoptalg         114
           xangst      3.9296744940E+00  1.9282971442E-05  1.5949858837E+00
                       3.9296744940E+00  1.9282971442E-05  4.7899978268E+00
                       3.9296744940E+00  1.9282971442E-05  7.9698892406E+00
                       1.9282971441E-05  3.9295139260E+00  3.2711492080E-04
                       1.9282971441E-05  3.9295139260E+00  3.1896446524E+00
                       1.9282971441E-05  3.9295139260E+00  6.3799435337E+00
                       9.4288861440E-01  6.5092986668E+00  1.5949858837E+00
                       9.5120144387E-01  6.5147388179E+00  4.7855040807E+00
                       9.5120144387E-01  6.5147388179E+00  7.9743829867E+00
                       6.9164989395E+00  1.3497677511E+00  1.5949858837E+00
                       6.9081861100E+00  1.3443276001E+00  4.7855040807E+00
                       6.9081861100E+00  1.3443276001E+00  7.9743829867E+00
                       1.3460654654E+00  9.5202449262E-01  4.7979996795E-04
                       1.3460654654E+00  9.5202449262E-01  3.1894919674E+00
                       1.3479509108E+00  9.4419877430E-01  6.3799435337E+00
                       6.5133220885E+00  6.9070419253E+00  4.7979996795E-04
                       6.5133220885E+00  6.9070419253E+00  3.1894919674E+00
                       6.5114366431E+00  6.9148676436E+00  6.3799435337E+00
                       2.7478881655E+00  5.3775008899E+00  1.0639530378E-02
                       2.7478881655E+00  5.3775008899E+00  3.1793322369E+00
                       2.7518471224E+00  5.3713597117E+00  6.3799435337E+00
                       5.1114993884E+00  2.4815655281E+00  1.0639530378E-02
                       5.1114993884E+00  2.4815655281E+00  3.1793322369E+00
                       5.1075404314E+00  2.4877067062E+00  6.3799435337E+00
                       2.4827827380E+00  2.7403120047E+00  1.5949858837E+00
                       2.4889710923E+00  2.7357372989E+00  4.7785772047E+00
                       2.4889710923E+00  2.7357372989E+00  7.9813098627E+00
                       5.3766048159E+00  5.1187544133E+00  1.5949858837E+00
                       5.3704164616E+00  5.1233291191E+00  4.7785772047E+00
                       5.3704164616E+00  5.1233291191E+00  7.9813098627E+00
                       4.5799721465E+00  5.8163109833E+00  1.7629480729E-02
                       4.5799721465E+00  5.8163109833E+00  3.1723422866E+00
                       4.5884733638E+00  5.7762677220E+00  6.3799435337E+00
                       3.2794154074E+00  2.0427554347E+00  1.7629480729E-02
                       3.2794154074E+00  2.0427554347E+00  3.1723422866E+00
                       3.2709141901E+00  2.0827986959E+00  6.3799435337E+00
                       2.0688697607E+00  4.5733863735E+00  1.5949858837E+00
                       2.0881689956E+00  4.5787887466E+00  4.7717064199E+00
                       2.0881689956E+00  4.5787887466E+00  7.9881806475E+00
                       5.7905177932E+00  3.2856800445E+00  1.5949858837E+00
                       5.7712185583E+00  3.2802776713E+00  4.7717064199E+00
                       5.7712185583E+00  3.2802776713E+00  7.9881806475E+00
                       1.9651574115E+00  7.0088444526E+00  3.7707820481E-02
                       1.9651574115E+00  7.0088444526E+00  3.1522639468E+00
                       1.9168408419E+00  6.9789854542E+00  6.3799435337E+00
                       5.8942301424E+00  8.5022196533E-01  3.7707820481E-02
                       5.8942301424E+00  8.5022196533E-01  3.1522639468E+00
                       5.9425467120E+00  8.8008096371E-01  6.3799435337E+00
                       8.6224513701E-01  1.9393771934E+00  1.5949858837E+00
                       8.6136721172E-01  1.9394055853E+00  4.7782184008E+00
                       8.6136721172E-01  1.9394055853E+00  7.9816686665E+00
                       6.9971424169E+00  5.9196892245E+00  1.5949858837E+00
                       6.9980203422E+00  5.9196608326E+00  4.7782184008E+00
                       6.9980203422E+00  5.9196608326E+00  7.9816686665E+00
            xcart      7.4260085850E+00  3.6439535053E-05  3.0140865059E+00
                       7.4260085850E+00  3.6439535053E-05  9.0517840697E+00
                       7.4260085850E+00  3.6439535053E-05  1.5060907974E+01
                       3.6439535052E-05  7.4257051555E+00  6.1815761428E-04
                       3.6439535052E-05  7.4257051555E+00  6.0275548543E+00
                       3.6439535052E-05  7.4257051555E+00  1.2056346022E+01
                       1.7818012550E+00  1.2300791797E+01  3.0140865059E+00
                       1.7975102261E+00  1.2311072193E+01  9.0432921203E+00
                       1.7975102261E+00  1.2311072193E+01  1.5069399924E+01
                       1.3070288794E+01  2.5506913926E+00  3.0140865059E+00
                       1.3054579823E+01  2.5404109970E+00  9.0432921203E+00
                       1.3054579823E+01  2.5404109970E+00  1.5069399924E+01
                       2.5436950866E+00  1.7990655629E+00  9.0669053798E-04
                       2.5436950866E+00  1.7990655629E+00  6.0272663213E+00
                       2.5472580620E+00  1.7842770984E+00  1.2056346022E+01
                       1.2308394962E+01  1.3052417627E+01  9.0669053798E-04
                       1.2308394962E+01  1.3052417627E+01  6.0272663213E+00
                       1.2304831987E+01  1.3067206092E+01  1.2056346022E+01
                       5.1927560765E+00  1.0162003961E+01  2.0105798597E-02
                       5.1927560765E+00  1.0162003961E+01  6.0080672133E+00
                       5.2002374210E+00  1.0150398816E+01  1.2056346022E+01
                       9.6593339725E+00  4.6894792288E+00  2.0105798597E-02
                       9.6593339725E+00  4.6894792288E+00  6.0080672133E+00
                       9.6518526281E+00  4.7010843737E+00  1.2056346022E+01
                       4.6917794223E+00  5.1784392075E+00  3.0140865059E+00
                       4.7034737171E+00  5.1697942664E+00  9.0302022217E+00
                       4.7034737171E+00  5.1697942664E+00  1.5082489822E+01
                       1.0160310627E+01  9.6730439826E+00  3.0140865059E+00
                       1.0148616332E+01  9.6816889237E+00  9.0302022217E+00
                       1.0148616332E+01  9.6816889237E+00  1.5082489822E+01
                       8.6548930531E+00  1.0991234862E+01  3.3314890442E-02
                       8.6548930531E+00  1.0991234862E+01  5.9948581214E+00
                       8.6709580255E+00  1.0915564065E+01  1.2056346022E+01
                       6.1971969960E+00  3.8602483280E+00  3.3314890442E-02
                       6.1971969960E+00  3.8602483280E+00  5.9948581214E+00
                       6.1811320235E+00  3.9359191253E+00  1.2056346022E+01
                       3.9095972524E+00  8.6424477457E+00  3.0140865059E+00
                       3.9460675208E+00  8.6526567514E+00  9.0172183201E+00
                       3.9460675208E+00  8.6526567514E+00  1.5095473724E+01
                       1.0942492797E+01  6.2090354444E+00  3.0140865059E+00
                       1.0906022528E+01  6.1988264386E+00  9.0172183201E+00
                       1.0906022528E+01  6.1988264386E+00  1.5095473724E+01
                       3.7136093157E+00  1.3244796523E+01  7.1257453778E-02
                       3.7136093157E+00  1.3244796523E+01  5.9569155581E+00
                       3.6223042315E+00  1.3188371194E+01  1.2056346022E+01
                       1.1138480733E+01  1.6066866666E+00  7.1257453778E-02
                       1.1138480733E+01  1.6066866666E+00  5.9569155581E+00
                       1.1229785818E+01  1.6631119962E+00  1.2056346022E+01
                       1.6294071684E+00  3.6648917639E+00  3.0140865059E+00
                       1.6277481300E+00  3.6649454169E+00  9.0295241807E+00
                       1.6277481300E+00  3.6649454169E+00  1.5083167863E+01
                       1.3222682881E+01  1.1186591426E+01  3.0140865059E+00
                       1.3224341919E+01  1.1186537773E+01  9.0295241807E+00
                       1.3224341919E+01  1.1186537773E+01  1.5083167863E+01
             xred      5.0000000000E-01  3.0715467997E-22  1.6666666670E-01
                       5.0000000000E-01  3.0715467997E-22  5.0052666890E-01
                       5.0000000000E-01  3.0715467997E-22  8.3280666450E-01
                      -5.5511151231E-17  5.0000000000E-01  3.4181589966E-05
                      -5.5511151231E-17  5.0000000000E-01  3.3329915181E-01
                      -5.5511151231E-17  5.0000000000E-01  6.6666666670E-01
                       1.1996625590E-01  8.2825689930E-01  1.6666666670E-01
                       1.2102395200E-01  8.2894911090E-01  5.0005709880E-01
                       1.2102395200E-01  8.2894911090E-01  8.3327623460E-01
                       8.8003374410E-01  1.7174310070E-01  1.6666666670E-01
                       8.7897604800E-01  1.7105088910E-01  5.0005709880E-01
                       8.7897604800E-01  1.7105088910E-01  8.3327623460E-01
                       1.7126873940E-01  1.2113685120E-01  5.0136281556E-05
                       1.7126873940E-01  1.2113685120E-01  3.3328319712E-01
                       1.7150864270E-01  1.2014108840E-01  6.6666666670E-01
                       8.2873126060E-01  8.7886314880E-01  5.0136281556E-05
                       8.2873126060E-01  8.7886314880E-01  3.3328319712E-01
                       8.2849135730E-01  8.7985891160E-01  6.6666666670E-01
                       3.4962969340E-01  6.8424333230E-01  1.1117685000E-03
                       3.4962969340E-01  6.8424333230E-01  3.3222156490E-01
                       3.5013342305E-01  6.8346191280E-01  6.6666666670E-01
                       6.5037030660E-01  3.1575666770E-01  1.1117685000E-03
                       6.5037030660E-01  3.1575666770E-01  3.3222156490E-01
                       6.4986657695E-01  3.1653808720E-01  6.6666666670E-01
                       3.1590012030E-01  3.4868178015E-01  1.6666666670E-01
                       3.1668751080E-01  3.4809968065E-01  4.9933328090E-01
                       3.1668751080E-01  3.4809968065E-01  8.3400005250E-01
                       6.8409987970E-01  6.5131821985E-01  1.6666666670E-01
                       6.8331248920E-01  6.5190031935E-01  4.9933328090E-01
                       6.8331248920E-01  6.5190031935E-01  8.3400005250E-01
                       5.8273829190E-01  7.4007735040E-01  1.8421773000E-03
                       5.8273829190E-01  7.4007735040E-01  3.3149115610E-01
                       5.8381998630E-01  7.3498215240E-01  6.6666666670E-01
                       4.1726170810E-01  2.5992264960E-01  1.8421773000E-03
                       4.1726170810E-01  2.5992264960E-01  3.3149115610E-01
                       4.1618001370E-01  2.6501784760E-01  6.6666666670E-01
                       2.6323392960E-01  5.8192645550E-01  1.6666666670E-01
                       2.6568950300E-01  5.8261385330E-01  4.9861532420E-01
                       2.6568950300E-01  5.8261385330E-01  8.3471800920E-01
                       7.3676607040E-01  4.1807354450E-01  1.6666666670E-01
                       7.3431049700E-01  4.1738614670E-01  4.9861532420E-01
                       7.3431049700E-01  4.1738614670E-01  8.3471800920E-01
                       2.5003636060E-01  8.9181956620E-01  3.9402460000E-03
                       2.5003636060E-01  8.9181956620E-01  3.2939308740E-01
                       2.4388872380E-01  8.8802027170E-01  6.6666666670E-01
                       7.4996363940E-01  1.0818043380E-01  3.9402460000E-03
                       7.4996363940E-01  1.0818043380E-01  3.2939308740E-01
                       7.5611127620E-01  1.1197972830E-01  6.6666666670E-01
                       1.0970827500E-01  2.4677008390E-01  1.6666666670E-01
                       1.0959657040E-01  2.4677369710E-01  4.9929578800E-01
                       1.0959657040E-01  2.4677369710E-01  8.3403754540E-01
                       8.9029172500E-01  7.5322991610E-01  1.6666666670E-01
                       8.9040342960E-01  7.5322630290E-01  4.9929578800E-01
                       8.9040342960E-01  7.5322630290E-01  8.3403754540E-01
            znucl       63.00000   38.00000    3.00000   13.00000    7.00000    8.00000

- Timing analysis has been suppressed with timopt=0

 Suggested references for the acknowledgment of ABINIT usage.

 Calculation completed.
.Delivered   0 WARNINGs and   0 COMMENTs to log file.