.Version 9.10.5 of ABINIT

 ABINIT is a project of the Universite Catholique de Louvain,
 Corning Inc. and other collaborators, see ~abinit/doc/developers/contributors.txt .
 acknowledgments of the ABINIT effort.

.Starting date : Fri 15 Mar 2024.
- ( at 14h50 )

- input  file    -> /gpfs/projects/acad/leds/DataBase_examples/adding_entry_to_DB/flow_lumi/w0/t1/run.abi
- output file    -> /gpfs/projects/acad/leds/DataBase_examples/adding_entry_to_DB/flow_lumi/w0/t1/run.abo
- root for input  files -> indata/in
- root for output files -> outdata/out

- inpspheads : Reading pseudopotential header in XML form from
-   /gpfs/home/acad/ucl-modl/jbouq/paw-sr-11_pbe_standard_xml/Eu.xml
- inpspheads : Reading pseudopotential header in XML form from
-   /gpfs/home/acad/ucl-modl/jbouq/paw-sr-11_pbe_standard_xml/Sr.xml
- inpspheads : Reading pseudopotential header in XML form from
-   /gpfs/home/acad/ucl-modl/jbouq/paw-sr-11_pbe_standard_xml/Li.xml
- inpspheads : Reading pseudopotential header in XML form from
-   /gpfs/home/acad/ucl-modl/jbouq/paw-sr-11_pbe_standard_xml/Al.xml
- inpspheads : Reading pseudopotential header in XML form from
-   /gpfs/home/acad/ucl-modl/jbouq/paw-sr-11_pbe_standard_xml/N.xml
- inpspheads : Reading pseudopotential header in XML form from
-   /gpfs/home/acad/ucl-modl/jbouq/paw-sr-11_pbe_standard_xml/O.xml

 Symmetries : space group P2/m (# 10); Bravais mP (primitive monocl.)
     intxc =       0    ionmov =       2      iscf =      17    lmnmax =      32
     lnmax =       8     mgfft =      60  mpssoang =       4    mqgrid =    4187
     natom =      54  nloc_mem =       2    nspden =       2   nspinor =       1
    nsppol =       2      nsym =       4    n1xccc =       1    ntypat =       6
    occopt =       2   xclevel =       2
-    mband =         180        mffmem =           1         mkmem =           1
       mpw =          73          nfft =       27000          nkpt =           1
Pmy_natom=         3
 PAW method is used; the additional fine FFT grid is defined by:
   mgfftf=        90    nfftf =     77760
  Rough estimation (10% accuracy) of disk space for files :

------------- Echo of variables that govern the present computation ------------
-
- outvars: echo of selected default values
-   iomode0 =  0 , fftalg0 =312 , wfoptalg0 = 10
-
- outvars: echo of global parameters not present in the input file
-  max_nthreads =    0
-
 -outvars: echo values of preprocessed input variables --------
-          iomode           1
            acell      1.0000000000E+00  1.0000000000E+00  1.0000000000E+00 Bohr
              amu      1.51965000E+02  8.76200000E+01  6.94100000E+00
                       2.69815390E+01  1.40067400E+01  1.59994000E+01
        autoparal           1
           bandpp           6
       chkdilatmx           0
          chkprim           0
      chksymbreak           0
     densfor_pred           6
           diemac      5.00000000E+00
          dilatmx      1.15000000E+00
             ecut      1.00000000E+01 Hartree
           ecutsm      5.00000000E-01 Hartree
-          fftalg         312
           ionmov           2
           irdden           1
           istwfk        2
              ixc     -101130
            jpawu      2.57245278E-02  0.00000000E+00  0.00000000E+00  0.00000000E+00  0.00000000E+00  0.00000000E+00 Hartree
         kptrlatt        1    0    0      0    1    0      0    0    1
          kptrlen      1.48514103E+01
            lpawu           3      -1      -1      -1      -1      -1
P           mkmem           1
            natom          54
            nband         180     180
           nbdbuf          30
            ngfft          50      54      60
          ngfftdg          72      72      90
             nkpt           1
-          npband          10
-           npfft           6
-        np_spkpt           2
           nspden           2
           nsppol           2
            nstep         300
             nsym           4
            ntime        1000
           ntypat           6
              occ      1.000000  1.000000  1.000000  1.000000  1.000000  1.000000
                       1.000000  1.000000  1.000000  1.000000  1.000000  1.000000
                       1.000000  1.000000  1.000000  1.000000  1.000000  1.000000
                       1.000000  1.000000  1.000000  1.000000  1.000000  1.000000
                       1.000000  1.000000  1.000000  1.000000  1.000000  1.000000
                       1.000000  1.000000  1.000000  1.000000  1.000000  1.000000
                       1.000000  1.000000  1.000000  1.000000  1.000000  1.000000
                       1.000000  1.000000  1.000000  1.000000  1.000000  1.000000
                       1.000000  1.000000  1.000000  1.000000  1.000000  1.000000
                       1.000000  1.000000  1.000000  1.000000  1.000000  1.000000
                       1.000000  1.000000  1.000000  1.000000  1.000000  1.000000
                       1.000000  1.000000  1.000000  1.000000  1.000000  1.000000
                       1.000000  1.000000  1.000000  1.000000  1.000000  1.000000
                       1.000000  1.000000  1.000000  1.000000  1.000000  1.000000
                       1.000000  1.000000  1.000000  1.000000  1.000000  1.000000
                       1.000000  1.000000  1.000000  1.000000  1.000000  1.000000
                       1.000000  1.000000  1.000000  1.000000  1.000000  1.000000
                       1.000000  1.000000  1.000000  1.000000  1.000000  1.000000
                       1.000000  1.000000  1.000000  1.000000  1.000000  1.000000
                       1.000000  1.000000  1.000000  1.000000  1.000000  1.000000
                       1.000000  1.000000  1.000000  1.000000  1.000000  1.000000
                       1.000000  1.000000  1.000000  1.000000  1.000000  1.000000
                       1.000000  1.000000  1.000000  1.000000  1.000000  1.000000
                       0.000000  1.000000  0.000000  0.000000  0.000000  0.000000
                       0.000000  0.000000  0.000000  0.000000  0.000000  0.000000
                       0.000000  0.000000  0.000000  0.000000  0.000000  0.000000
                       0.000000  0.000000  0.000000  0.000000  0.000000  0.000000
                       0.000000  0.000000  0.000000  0.000000  0.000000  0.000000
                       0.000000  0.000000  0.000000  0.000000  0.000000  0.000000
                       0.000000  0.000000  0.000000  0.000000  0.000000  0.000000
                       1.000000  1.000000  1.000000  1.000000  1.000000  1.000000
                       1.000000  1.000000  1.000000  1.000000  1.000000  1.000000
                       1.000000  1.000000  1.000000  1.000000  1.000000  1.000000
                       1.000000  1.000000  1.000000  1.000000  1.000000  1.000000
                       1.000000  1.000000  1.000000  1.000000  1.000000  1.000000
                       1.000000  1.000000  1.000000  1.000000  1.000000  1.000000
                       1.000000  1.000000  1.000000  1.000000  1.000000  1.000000
                       1.000000  1.000000  1.000000  1.000000  1.000000  1.000000
                       1.000000  1.000000  1.000000  1.000000  1.000000  1.000000
                       1.000000  1.000000  1.000000  1.000000  1.000000  1.000000
                       1.000000  1.000000  1.000000  1.000000  1.000000  1.000000
                       1.000000  1.000000  1.000000  1.000000  1.000000  1.000000
                       1.000000  1.000000  1.000000  1.000000  1.000000  1.000000
                       1.000000  1.000000  1.000000  1.000000  1.000000  1.000000
                       1.000000  1.000000  1.000000  1.000000  1.000000  1.000000
                       1.000000  1.000000  1.000000  1.000000  1.000000  1.000000
                       1.000000  1.000000  1.000000  1.000000  1.000000  1.000000
                       1.000000  1.000000  1.000000  1.000000  1.000000  1.000000
                       1.000000  1.000000  1.000000  1.000000  1.000000  1.000000
                       1.000000  1.000000  1.000000  1.000000  1.000000  1.000000
                       1.000000  1.000000  1.000000  1.000000  1.000000  1.000000
                       1.000000  1.000000  1.000000  1.000000  1.000000  1.000000
                       0.000000  0.000000  0.000000  0.000000  0.000000  0.000000
                       0.000000  0.000000  0.000000  0.000000  0.000000  0.000000
                       0.000000  0.000000  0.000000  0.000000  0.000000  0.000000
                       0.000000  0.000000  0.000000  0.000000  0.000000  0.000000
                       0.000000  0.000000  0.000000  0.000000  0.000000  0.000000
                       0.000000  0.000000  0.000000  0.000000  0.000000  0.000000
                       0.000000  0.000000  0.000000  0.000000  0.000000  0.000000
                       0.000000  0.000000  0.000000  0.000000  0.000000  0.000000
           occopt           2
        optforces           1
        paral_kgb           1
        pawecutdg      2.00000000E+01 Hartree
         pawmixdg           1
            prtwf           0
            rprim      1.4852017170E+01  7.2879070107E-05  0.0000000000E+00
                       7.2879070106E-05  1.4851410311E+01  0.0000000000E+00
                       0.0000000000E+00  0.0000000000E+00  1.8084519032E+01
          spgroup          10
           spinat      0.0000000000E+00  0.0000000000E+00  7.0000000000E+00
                       0.0000000000E+00  0.0000000000E+00  0.0000000000E+00
                       0.0000000000E+00  0.0000000000E+00  0.0000000000E+00
                       0.0000000000E+00  0.0000000000E+00  0.0000000000E+00
                       0.0000000000E+00  0.0000000000E+00  0.0000000000E+00
                       0.0000000000E+00  0.0000000000E+00  0.0000000000E+00
                       0.0000000000E+00  0.0000000000E+00  0.0000000000E+00
                       0.0000000000E+00  0.0000000000E+00  0.0000000000E+00
                       0.0000000000E+00  0.0000000000E+00  0.0000000000E+00
                       0.0000000000E+00  0.0000000000E+00  0.0000000000E+00
                       0.0000000000E+00  0.0000000000E+00  0.0000000000E+00
                       0.0000000000E+00  0.0000000000E+00  0.0000000000E+00
                       0.0000000000E+00  0.0000000000E+00  0.0000000000E+00
                       0.0000000000E+00  0.0000000000E+00  0.0000000000E+00
                       0.0000000000E+00  0.0000000000E+00  0.0000000000E+00
                       0.0000000000E+00  0.0000000000E+00  0.0000000000E+00
                       0.0000000000E+00  0.0000000000E+00  0.0000000000E+00
                       0.0000000000E+00  0.0000000000E+00  0.0000000000E+00
                       0.0000000000E+00  0.0000000000E+00  0.0000000000E+00
                       0.0000000000E+00  0.0000000000E+00  0.0000000000E+00
                       0.0000000000E+00  0.0000000000E+00  0.0000000000E+00
                       0.0000000000E+00  0.0000000000E+00  0.0000000000E+00
                       0.0000000000E+00  0.0000000000E+00  0.0000000000E+00
[...]
                       0.0000000000E+00  0.0000000000E+00  0.0000000000E+00
                       0.0000000000E+00  0.0000000000E+00  0.0000000000E+00
                       0.0000000000E+00  0.0000000000E+00  0.0000000000E+00
                       0.0000000000E+00  0.0000000000E+00  0.0000000000E+00
                       0.0000000000E+00  0.0000000000E+00  0.0000000000E+00
                       0.0000000000E+00  0.0000000000E+00  0.0000000000E+00
                       0.0000000000E+00  0.0000000000E+00  0.0000000000E+00
                       0.0000000000E+00  0.0000000000E+00  0.0000000000E+00
                       0.0000000000E+00  0.0000000000E+00  0.0000000000E+00
                       0.0000000000E+00  0.0000000000E+00  0.0000000000E+00
                       0.0000000000E+00  0.0000000000E+00  0.0000000000E+00
                       0.0000000000E+00  0.0000000000E+00  0.0000000000E+00
                       0.0000000000E+00  0.0000000000E+00  0.0000000000E+00
                       0.0000000000E+00  0.0000000000E+00  0.0000000000E+00
                       0.0000000000E+00  0.0000000000E+00  0.0000000000E+00
                       0.0000000000E+00  0.0000000000E+00  0.0000000000E+00
                       0.0000000000E+00  0.0000000000E+00  0.0000000000E+00
                       0.0000000000E+00  0.0000000000E+00  0.0000000000E+00
                       0.0000000000E+00  0.0000000000E+00  0.0000000000E+00
                       0.0000000000E+00  0.0000000000E+00  0.0000000000E+00
                       0.0000000000E+00  0.0000000000E+00  0.0000000000E+00
                       0.0000000000E+00  0.0000000000E+00  0.0000000000E+00
                       0.0000000000E+00  0.0000000000E+00  0.0000000000E+00
                       0.0000000000E+00  0.0000000000E+00  0.0000000000E+00
                       0.0000000000E+00  0.0000000000E+00  0.0000000000E+00
                       0.0000000000E+00  0.0000000000E+00  0.0000000000E+00
                       0.0000000000E+00  0.0000000000E+00  0.0000000000E+00
                       0.0000000000E+00  0.0000000000E+00  0.0000000000E+00
                       0.0000000000E+00  0.0000000000E+00  0.0000000000E+00
                       0.0000000000E+00  0.0000000000E+00  0.0000000000E+00
                       0.0000000000E+00  0.0000000000E+00  0.0000000000E+00
                       0.0000000000E+00  0.0000000000E+00  0.0000000000E+00
                       0.0000000000E+00  0.0000000000E+00  0.0000000000E+00
                       0.0000000000E+00  0.0000000000E+00  0.0000000000E+00
                       0.0000000000E+00  0.0000000000E+00  0.0000000000E+00
                       0.0000000000E+00  0.0000000000E+00  0.0000000000E+00
                       0.0000000000E+00  0.0000000000E+00  0.0000000000E+00
                       0.0000000000E+00  0.0000000000E+00  0.0000000000E+00
                       0.0000000000E+00  0.0000000000E+00  0.0000000000E+00
                       0.0000000000E+00  0.0000000000E+00  0.0000000000E+00
                       0.0000000000E+00  0.0000000000E+00  0.0000000000E+00
           strten      1.1859959235E-05  2.5067953052E-05  3.9094945502E-05
                       0.0000000000E+00  0.0000000000E+00 -1.7628527623E-06
           symrel      1  0  0   0  1  0   0  0  1      -1  0  0   0 -1  0   0  0 -1
                      -1  0  0   0 -1  0   0  0  1       1  0  0   0  1  0   0  0 -1
            tnons      0.0000000  0.0000000  0.0000000    -0.0000000  0.0000000  0.3333333
                      -0.0000000  0.0000000  0.0000000     0.0000000  0.0000000  0.3333333
           toldff      1.00000000E-04
           tolmxf      1.00000000E-03
            typat      1  2  2  2  2  2  3  3  3  3  3  3  3  3  3  3  3  3  4  4
                       4  4  4  4  4  4  4  4  4  4  5  5  5  5  5  5  5  5  5  5
                       5  5  6  6  6  6  6  6  6  6  6  6  6  6
            upawu      2.57245278E-01  0.00000000E+00  0.00000000E+00  0.00000000E+00  0.00000000E+00  0.00000000E+00 Hartree
          usepawu           1
           useylm           1
         wfoptalg         114
           xangst      3.9296744939E+00  1.9282971442E-05  1.5949858837E+00
                       3.9296744939E+00  1.9282971442E-05  4.7899978269E+00
                       3.9296744939E+00  1.9282971442E-05  7.9698892405E+00
                       1.9282971441E-05  3.9295139260E+00  3.2711482477E-04
                       1.9282971441E-05  3.9295139260E+00  3.1896446525E+00
                       1.9282971441E-05  3.9295139260E+00  6.3799435337E+00
                       9.4288861405E-01  6.5092986665E+00  1.5949858837E+00
                       9.5120144389E-01  6.5147388178E+00  4.7855040811E+00
                       9.5120144389E-01  6.5147388178E+00  7.9743829863E+00
                       6.9164989398E+00  1.3497677514E+00  1.5949858837E+00
                       6.9081861099E+00  1.3443276001E+00  4.7855040811E+00
                       6.9081861099E+00  1.3443276001E+00  7.9743829863E+00
                       1.3460654651E+00  9.5202449237E-01  4.7979979143E-04
                       1.3460654651E+00  9.5202449237E-01  3.1894919675E+00
                       1.3479509110E+00  9.4419877417E-01  6.3799435337E+00
                       6.5133220888E+00  6.9070419255E+00  4.7979979143E-04
                       6.5133220888E+00  6.9070419255E+00  3.1894919675E+00
                       6.5114366429E+00  6.9148676437E+00  6.3799435337E+00
                       2.7478881654E+00  5.3775008896E+00  1.0639530658E-02
                       2.7478881654E+00  5.3775008896E+00  3.1793322367E+00
                       2.7518471224E+00  5.3713597119E+00  6.3799435337E+00
                       5.1114993884E+00  2.4815655283E+00  1.0639530658E-02
                       5.1114993884E+00  2.4815655283E+00  3.1793322367E+00
                       5.1075404314E+00  2.4877067060E+00  6.3799435337E+00
                       2.4827827383E+00  2.7403120047E+00  1.5949858837E+00
                       2.4889710925E+00  2.7357372988E+00  4.7785772047E+00
                       2.4889710925E+00  2.7357372988E+00  7.9813098627E+00
                       5.3766048155E+00  5.1187544132E+00  1.5949858837E+00
                       5.3704164614E+00  5.1233291191E+00  4.7785772047E+00
                       5.3704164614E+00  5.1233291191E+00  7.9813098627E+00
                       4.5799721462E+00  5.8163109829E+00  1.7629480461E-02
                       4.5799721462E+00  5.8163109829E+00  3.1723422869E+00
                       4.5884733639E+00  5.7762677221E+00  6.3799435337E+00
                       3.2794154076E+00  2.0427554349E+00  1.7629480461E-02
                       3.2794154076E+00  2.0427554349E+00  3.1723422869E+00
                       3.2709141900E+00  2.0827986958E+00  6.3799435337E+00
                       2.0688697608E+00  4.5733863738E+00  1.5949858837E+00
                       2.0881689958E+00  4.5787887464E+00  4.7717064203E+00
                       2.0881689958E+00  4.5787887464E+00  7.9881806471E+00
                       5.7905177931E+00  3.2856800441E+00  1.5949858837E+00
                       5.7712185580E+00  3.2802776715E+00  4.7717064203E+00
                       5.7712185580E+00  3.2802776715E+00  7.9881806471E+00
                       1.9651574116E+00  7.0088444525E+00  3.7707820491E-02
                       1.9651574116E+00  7.0088444525E+00  3.1522639468E+00
                       1.9168408419E+00  6.9789854539E+00  6.3799435337E+00
                       5.8942301423E+00  8.5022196541E-01  3.7707820491E-02
                       5.8942301423E+00  8.5022196541E-01  3.1522639468E+00
                       5.9425467120E+00  8.8008096402E-01  6.3799435337E+00
                       8.6224513718E-01  1.9393771936E+00  1.5949858837E+00
                       8.6136721137E-01  1.9394055850E+00  4.7782184006E+00
                       8.6136721137E-01  1.9394055850E+00  7.9816686668E+00
                       6.9971424167E+00  5.9196892243E+00  1.5949858837E+00
                       6.9980203425E+00  5.9196608329E+00  4.7782184006E+00
                       6.9980203425E+00  5.9196608329E+00  7.9816686668E+00
            xcart      7.4260085849E+00  3.6439535053E-05  3.0140865059E+00
                       7.4260085849E+00  3.6439535053E-05  9.0517840699E+00
                       7.4260085849E+00  3.6439535053E-05  1.5060907974E+01
                       3.6439535051E-05  7.4257051555E+00  6.1815743282E-04
                       3.6439535051E-05  7.4257051555E+00  6.0275548544E+00
                       3.6439535051E-05  7.4257051555E+00  1.2056346022E+01
                       1.7818012544E+00  1.2300791797E+01  3.0140865059E+00
                       1.7975102262E+00  1.2311072193E+01  9.0432921210E+00
                       1.7975102262E+00  1.2311072193E+01  1.5069399923E+01
                       1.3070288795E+01  2.5506913931E+00  3.0140865059E+00
                       1.3054579823E+01  2.5404109970E+00  9.0432921210E+00
                       1.3054579823E+01  2.5404109970E+00  1.5069399923E+01
                       2.5436950859E+00  1.7990655624E+00  9.0669020442E-04
                       2.5436950859E+00  1.7990655624E+00  6.0272663217E+00
                       2.5472580623E+00  1.7842770982E+00  1.2056346022E+01
                       1.2308394963E+01  1.3052417628E+01  9.0669020442E-04
                       1.2308394963E+01  1.3052417628E+01  6.0272663217E+00
                       1.2304831987E+01  1.3067206092E+01  1.2056346022E+01
                       5.1927560765E+00  1.0162003961E+01  2.0105799126E-02
                       5.1927560765E+00  1.0162003961E+01  6.0080672127E+00
                       5.2002374210E+00  1.0150398817E+01  1.2056346022E+01
                       9.6593339725E+00  4.6894792293E+00  2.0105799126E-02
                       9.6593339725E+00  4.6894792293E+00  6.0080672127E+00
                       9.6518526280E+00  4.7010843732E+00  1.2056346022E+01
                       4.6917794228E+00  5.1784392075E+00  3.0140865059E+00
                       4.7034737174E+00  5.1697942663E+00  9.0302022218E+00
                       4.7034737174E+00  5.1697942663E+00  1.5082489822E+01
                       1.0160310626E+01  9.6730439825E+00  3.0140865059E+00
                       1.0148616332E+01  9.6816889237E+00  9.0302022218E+00
                       1.0148616332E+01  9.6816889237E+00  1.5082489822E+01
                       8.6548930526E+00  1.0991234861E+01  3.3314889935E-02
                       8.6548930526E+00  1.0991234861E+01  5.9948581219E+00
                       8.6709580258E+00  1.0915564065E+01  1.2056346022E+01
                       6.1971969963E+00  3.8602483285E+00  3.3314889935E-02
                       6.1971969963E+00  3.8602483285E+00  5.9948581219E+00
                       6.1811320232E+00  3.9359191249E+00  1.2056346022E+01
                       3.9095972525E+00  8.6424477463E+00  3.0140865059E+00
                       3.9460675213E+00  8.6526567511E+00  9.0172183209E+00
                       3.9460675213E+00  8.6526567511E+00  1.5095473723E+01
                       1.0942492796E+01  6.2090354437E+00  3.0140865059E+00
                       1.0906022528E+01  6.1988264389E+00  9.0172183209E+00
                       1.0906022528E+01  6.1988264389E+00  1.5095473723E+01
                       3.7136093159E+00  1.3244796523E+01  7.1257453796E-02
                       3.7136093159E+00  1.3244796523E+01  5.9569155581E+00
                       3.6223042315E+00  1.3188371193E+01  1.2056346022E+01
                       1.1138480733E+01  1.6066866668E+00  7.1257453796E-02
                       1.1138480733E+01  1.6066866668E+00  5.9569155581E+00
                       1.1229785817E+01  1.6631119968E+00  1.2056346022E+01
                       1.6294071687E+00  3.6648917643E+00  3.0140865059E+00
                       1.6277481293E+00  3.6649454163E+00  9.0295241802E+00
                       1.6277481293E+00  3.6649454163E+00  1.5083167864E+01
                       1.3222682880E+01  1.1186591426E+01  3.0140865059E+00
                       1.3224341920E+01  1.1186537774E+01  9.0295241802E+00
                       1.3224341920E+01  1.1186537774E+01  1.5083167864E+01
             xred      5.0000000000E-01  2.9463205325E-22  1.6666666670E-01
                       5.0000000000E-01  2.9463205325E-22  5.0052666891E-01
                       5.0000000000E-01  2.9463205325E-22  8.3280666449E-01
                      -1.1102230246E-16  5.0000000000E-01  3.4181579932E-05
                      -1.1102230246E-16  5.0000000000E-01  3.3329915182E-01
                      -1.1102230246E-16  5.0000000000E-01  6.6666666670E-01
                       1.1996625586E-01  8.2825689927E-01  1.6666666670E-01
                       1.2102395200E-01  8.2894911090E-01  5.0005709884E-01
                       1.2102395200E-01  8.2894911090E-01  8.3327623456E-01
                       8.8003374414E-01  1.7174310073E-01  1.6666666670E-01
                       8.7897604800E-01  1.7105088910E-01  5.0005709884E-01
                       8.7897604800E-01  1.7105088910E-01  8.3327623456E-01
                       1.7126873936E-01  1.2113685117E-01  5.0136263111E-05
                       1.7126873936E-01  1.2113685117E-01  3.3328319714E-01
                       1.7150864272E-01  1.2014108838E-01  6.6666666670E-01
                       8.2873126064E-01  8.7886314883E-01  5.0136263111E-05
                       8.2873126064E-01  8.7886314883E-01  3.3328319714E-01
                       8.2849135728E-01  8.7985891162E-01  6.6666666670E-01
                       3.4962969340E-01  6.8424333227E-01  1.1117685292E-03
                       3.4962969340E-01  6.8424333227E-01  3.3222156487E-01
                       3.5013342305E-01  6.8346191283E-01  6.6666666670E-01
                       6.5037030660E-01  3.1575666773E-01  1.1117685292E-03
                       6.5037030660E-01  3.1575666773E-01  3.3222156487E-01
                       6.4986657695E-01  3.1653808717E-01  6.6666666670E-01
                       3.1590012034E-01  3.4868178015E-01  1.6666666670E-01
                       3.1668751082E-01  3.4809968065E-01  4.9933328090E-01
                       3.1668751082E-01  3.4809968065E-01  8.3400005250E-01
                       6.8409987966E-01  6.5131821985E-01  1.6666666670E-01
                       6.8331248918E-01  6.5190031935E-01  4.9933328090E-01
                       6.8331248918E-01  6.5190031935E-01  8.3400005250E-01
                       5.8273829187E-01  7.4007735036E-01  1.8421772720E-03
                       5.8273829187E-01  7.4007735036E-01  3.3149115613E-01
                       5.8381998632E-01  7.3498215242E-01  6.6666666670E-01
                       4.1726170813E-01  2.5992264964E-01  1.8421772720E-03
                       4.1726170813E-01  2.5992264964E-01  3.3149115613E-01
                       4.1618001368E-01  2.6501784758E-01  6.6666666670E-01
                       2.6323392961E-01  5.8192645554E-01  1.6666666670E-01
                       2.6568950304E-01  5.8261385328E-01  4.9861532424E-01
                       2.6568950304E-01  5.8261385328E-01  8.3471800916E-01
                       7.3676607039E-01  4.1807354446E-01  1.6666666670E-01
                       7.3431049696E-01  4.1738614672E-01  4.9861532424E-01
                       7.3431049696E-01  4.1738614672E-01  8.3471800916E-01
                       2.5003636061E-01  8.9181956619E-01  3.9402460010E-03
                       2.5003636061E-01  8.9181956619E-01  3.2939308740E-01
                       2.4388872380E-01  8.8802027166E-01  6.6666666670E-01
                       7.4996363939E-01  1.0818043381E-01  3.9402460010E-03
                       7.4996363939E-01  1.0818043381E-01  3.2939308740E-01
                       7.5611127620E-01  1.1197972834E-01  6.6666666670E-01
                       1.0970827502E-01  2.4677008392E-01  1.6666666670E-01
                       1.0959657036E-01  2.4677369706E-01  4.9929578797E-01
                       1.0959657036E-01  2.4677369706E-01  8.3403754543E-01
                       8.9029172498E-01  7.5322991608E-01  1.6666666670E-01
                       8.9040342964E-01  7.5322630294E-01  4.9929578797E-01
                       8.9040342964E-01  7.5322630294E-01  8.3403754543E-01
            znucl       63.00000   38.00000    3.00000   13.00000    7.00000    8.00000

- Timing analysis has been suppressed with timopt=0

 Suggested references for the acknowledgment of ABINIT usage.

 Calculation completed.
.Delivered   0 WARNINGs and   9 COMMENTs to log file.