.Version 9.10.5 of ABINIT

 ABINIT is a project of the Universite Catholique de Louvain,
 Corning Inc. and other collaborators, see ~abinit/doc/developers/contributors.txt .
 acknowledgments of the ABINIT effort.

.Starting date : Fri 15 Mar 2024.
- ( at 14h46 )

- input  file    -> /gpfs/projects/acad/leds/DataBase_examples/adding_entry_to_DB/flow_lumi/w0/t0/run.abi
- output file    -> /gpfs/projects/acad/leds/DataBase_examples/adding_entry_to_DB/flow_lumi/w0/t0/run.abo
- root for input  files -> indata/in
- root for output files -> outdata/out

- inpspheads : Reading pseudopotential header in XML form from
-   /gpfs/home/acad/ucl-modl/jbouq/paw-sr-11_pbe_standard_xml/Eu.xml
- inpspheads : Reading pseudopotential header in XML form from
-   /gpfs/home/acad/ucl-modl/jbouq/paw-sr-11_pbe_standard_xml/Sr.xml
- inpspheads : Reading pseudopotential header in XML form from
-   /gpfs/home/acad/ucl-modl/jbouq/paw-sr-11_pbe_standard_xml/Li.xml
- inpspheads : Reading pseudopotential header in XML form from
-   /gpfs/home/acad/ucl-modl/jbouq/paw-sr-11_pbe_standard_xml/Al.xml
- inpspheads : Reading pseudopotential header in XML form from
-   /gpfs/home/acad/ucl-modl/jbouq/paw-sr-11_pbe_standard_xml/N.xml
- inpspheads : Reading pseudopotential header in XML form from
-   /gpfs/home/acad/ucl-modl/jbouq/paw-sr-11_pbe_standard_xml/O.xml

 Symmetries : space group P2/m (# 10); Bravais mP (primitive monocl.)
     intxc =       0    ionmov =       2      iscf =      17    lmnmax =      32
     lnmax =       8     mgfft =      60  mpssoang =       4    mqgrid =    4200
     natom =      54  nloc_mem =       2    nspden =       2   nspinor =       1
    nsppol =       2      nsym =       4    n1xccc =       1    ntypat =       6
    occopt =       2   xclevel =       2
-    mband =         180        mffmem =           1         mkmem =           1
       mpw =          76          nfft =       27000          nkpt =           1
Pmy_natom=         3
 PAW method is used; the additional fine FFT grid is defined by:
   mgfftf=        90    nfftf =     77760
  Rough estimation (10% accuracy) of disk space for files :

------------- Echo of variables that govern the present computation ------------
-
- outvars: echo of selected default values
-   iomode0 =  0 , fftalg0 =312 , wfoptalg0 = 10
-
- outvars: echo of global parameters not present in the input file
-  max_nthreads =    0
-
 -outvars: echo values of preprocessed input variables --------
-          iomode           1
            acell      1.0000000000E+00  1.0000000000E+00  1.0000000000E+00 Bohr
              amu      1.51965000E+02  8.76200000E+01  6.94100000E+00
                       2.69815390E+01  1.40067400E+01  1.59994000E+01
        autoparal           1
           bandpp           6
       chkdilatmx           0
          chkprim           0
      chksymbreak           0
     densfor_pred           6
           diemac      5.00000000E+00
          dilatmx      1.15000000E+00
             ecut      1.00000000E+01 Hartree
           ecutsm      5.00000000E-01 Hartree
-          fftalg         312
           ionmov           2
           istwfk        2
              ixc     -101130
            jpawu      2.57245278E-02  0.00000000E+00  0.00000000E+00  0.00000000E+00  0.00000000E+00  0.00000000E+00 Hartree
         kptrlatt        1    0    0      0    1    0      0    0    1
          kptrlen      1.51269760E+01
            lpawu           3      -1      -1      -1      -1      -1
P           mkmem           1
            natom          54
            nband         180     180
           nbdbuf          30
            ngfft          50      54      60
          ngfftdg          72      72      90
             nkpt           1
-          npband          10
-           npfft           6
-        np_spkpt           2
           nspden           2
           nsppol           2
            nstep         300
             nsym           4
            ntime        1000
           ntypat           6
              occ      1.000000  1.000000  1.000000  1.000000  1.000000  1.000000
                       1.000000  1.000000  1.000000  1.000000  1.000000  1.000000
                       1.000000  1.000000  1.000000  1.000000  1.000000  1.000000
                       1.000000  1.000000  1.000000  1.000000  1.000000  1.000000
                       1.000000  1.000000  1.000000  1.000000  1.000000  1.000000
                       1.000000  1.000000  1.000000  1.000000  1.000000  1.000000
                       1.000000  1.000000  1.000000  1.000000  1.000000  1.000000
                       1.000000  1.000000  1.000000  1.000000  1.000000  1.000000
                       1.000000  1.000000  1.000000  1.000000  1.000000  1.000000
                       1.000000  1.000000  1.000000  1.000000  1.000000  1.000000
                       1.000000  1.000000  1.000000  1.000000  1.000000  1.000000
                       1.000000  1.000000  1.000000  1.000000  1.000000  1.000000
                       1.000000  1.000000  1.000000  1.000000  1.000000  1.000000
                       1.000000  1.000000  1.000000  1.000000  1.000000  1.000000
                       1.000000  1.000000  1.000000  1.000000  1.000000  1.000000
                       1.000000  1.000000  1.000000  1.000000  1.000000  1.000000
                       1.000000  1.000000  1.000000  1.000000  1.000000  1.000000
                       1.000000  1.000000  1.000000  1.000000  1.000000  1.000000
                       1.000000  1.000000  1.000000  1.000000  1.000000  1.000000
                       1.000000  1.000000  1.000000  1.000000  1.000000  1.000000
                       1.000000  1.000000  1.000000  1.000000  1.000000  1.000000
                       1.000000  1.000000  1.000000  1.000000  1.000000  1.000000
                       1.000000  1.000000  1.000000  1.000000  1.000000  1.000000
                       1.000000  0.000000  0.000000  0.000000  0.000000  0.000000
                       0.000000  0.000000  0.000000  0.000000  0.000000  0.000000
                       0.000000  0.000000  0.000000  0.000000  0.000000  0.000000
                       0.000000  0.000000  0.000000  0.000000  0.000000  0.000000
                       0.000000  0.000000  0.000000  0.000000  0.000000  0.000000
                       0.000000  0.000000  0.000000  0.000000  0.000000  0.000000
                       0.000000  0.000000  0.000000  0.000000  0.000000  0.000000
                       1.000000  1.000000  1.000000  1.000000  1.000000  1.000000
                       1.000000  1.000000  1.000000  1.000000  1.000000  1.000000
                       1.000000  1.000000  1.000000  1.000000  1.000000  1.000000
                       1.000000  1.000000  1.000000  1.000000  1.000000  1.000000
                       1.000000  1.000000  1.000000  1.000000  1.000000  1.000000
                       1.000000  1.000000  1.000000  1.000000  1.000000  1.000000
                       1.000000  1.000000  1.000000  1.000000  1.000000  1.000000
                       1.000000  1.000000  1.000000  1.000000  1.000000  1.000000
                       1.000000  1.000000  1.000000  1.000000  1.000000  1.000000
                       1.000000  1.000000  1.000000  1.000000  1.000000  1.000000
                       1.000000  1.000000  1.000000  1.000000  1.000000  1.000000
                       1.000000  1.000000  1.000000  1.000000  1.000000  1.000000
                       1.000000  1.000000  1.000000  1.000000  1.000000  1.000000
                       1.000000  1.000000  1.000000  1.000000  1.000000  1.000000
                       1.000000  1.000000  1.000000  1.000000  1.000000  1.000000
                       1.000000  1.000000  1.000000  1.000000  1.000000  1.000000
                       1.000000  1.000000  1.000000  1.000000  1.000000  1.000000
                       1.000000  1.000000  1.000000  1.000000  1.000000  1.000000
                       1.000000  1.000000  1.000000  1.000000  1.000000  1.000000
                       1.000000  1.000000  1.000000  1.000000  1.000000  1.000000
                       1.000000  1.000000  1.000000  1.000000  1.000000  1.000000
                       1.000000  1.000000  1.000000  1.000000  1.000000  1.000000
                       0.000000  0.000000  0.000000  0.000000  0.000000  0.000000
                       0.000000  0.000000  0.000000  0.000000  0.000000  0.000000
                       0.000000  0.000000  0.000000  0.000000  0.000000  0.000000
                       0.000000  0.000000  0.000000  0.000000  0.000000  0.000000
                       0.000000  0.000000  0.000000  0.000000  0.000000  0.000000
                       0.000000  0.000000  0.000000  0.000000  0.000000  0.000000
                       0.000000  0.000000  0.000000  0.000000  0.000000  0.000000
                       0.000000  0.000000  0.000000  0.000000  0.000000  0.000000
           occopt           2
          optcell           2
        optforces           1
        paral_kgb           1
        pawecutdg      2.00000000E+01 Hartree
         pawmixdg           1
            prtwf           0
            rprim      1.5126976002E+01  0.0000000000E+00  0.0000000000E+00
                       0.0000000000E+00  1.5126976002E+01  0.0000000000E+00
                       0.0000000000E+00  0.0000000000E+00  1.8140973330E+01
          spgroup          10
           spinat      0.0000000000E+00  0.0000000000E+00  7.0000000000E+00
                       0.0000000000E+00  0.0000000000E+00  0.0000000000E+00
                       0.0000000000E+00  0.0000000000E+00  0.0000000000E+00
                       0.0000000000E+00  0.0000000000E+00  0.0000000000E+00
                       0.0000000000E+00  0.0000000000E+00  0.0000000000E+00
                       0.0000000000E+00  0.0000000000E+00  0.0000000000E+00
                       0.0000000000E+00  0.0000000000E+00  0.0000000000E+00
                       0.0000000000E+00  0.0000000000E+00  0.0000000000E+00
                       0.0000000000E+00  0.0000000000E+00  0.0000000000E+00
                       0.0000000000E+00  0.0000000000E+00  0.0000000000E+00
                       0.0000000000E+00  0.0000000000E+00  0.0000000000E+00
                       0.0000000000E+00  0.0000000000E+00  0.0000000000E+00
                       0.0000000000E+00  0.0000000000E+00  0.0000000000E+00
                       0.0000000000E+00  0.0000000000E+00  0.0000000000E+00
                       0.0000000000E+00  0.0000000000E+00  0.0000000000E+00
                       0.0000000000E+00  0.0000000000E+00  0.0000000000E+00
                       0.0000000000E+00  0.0000000000E+00  0.0000000000E+00
                       0.0000000000E+00  0.0000000000E+00  0.0000000000E+00
                       0.0000000000E+00  0.0000000000E+00  0.0000000000E+00
                       0.0000000000E+00  0.0000000000E+00  0.0000000000E+00
                       0.0000000000E+00  0.0000000000E+00  0.0000000000E+00
                       0.0000000000E+00  0.0000000000E+00  0.0000000000E+00
                       0.0000000000E+00  0.0000000000E+00  0.0000000000E+00
[...]
                       0.0000000000E+00  0.0000000000E+00  0.0000000000E+00
                       0.0000000000E+00  0.0000000000E+00  0.0000000000E+00
                       0.0000000000E+00  0.0000000000E+00  0.0000000000E+00
                       0.0000000000E+00  0.0000000000E+00  0.0000000000E+00
                       0.0000000000E+00  0.0000000000E+00  0.0000000000E+00
                       0.0000000000E+00  0.0000000000E+00  0.0000000000E+00
                       0.0000000000E+00  0.0000000000E+00  0.0000000000E+00
                       0.0000000000E+00  0.0000000000E+00  0.0000000000E+00
                       0.0000000000E+00  0.0000000000E+00  0.0000000000E+00
                       0.0000000000E+00  0.0000000000E+00  0.0000000000E+00
                       0.0000000000E+00  0.0000000000E+00  0.0000000000E+00
                       0.0000000000E+00  0.0000000000E+00  0.0000000000E+00
                       0.0000000000E+00  0.0000000000E+00  0.0000000000E+00
                       0.0000000000E+00  0.0000000000E+00  0.0000000000E+00
                       0.0000000000E+00  0.0000000000E+00  0.0000000000E+00
                       0.0000000000E+00  0.0000000000E+00  0.0000000000E+00
                       0.0000000000E+00  0.0000000000E+00  0.0000000000E+00
                       0.0000000000E+00  0.0000000000E+00  0.0000000000E+00
                       0.0000000000E+00  0.0000000000E+00  0.0000000000E+00
                       0.0000000000E+00  0.0000000000E+00  0.0000000000E+00
                       0.0000000000E+00  0.0000000000E+00  0.0000000000E+00
                       0.0000000000E+00  0.0000000000E+00  0.0000000000E+00
                       0.0000000000E+00  0.0000000000E+00  0.0000000000E+00
                       0.0000000000E+00  0.0000000000E+00  0.0000000000E+00
                       0.0000000000E+00  0.0000000000E+00  0.0000000000E+00
                       0.0000000000E+00  0.0000000000E+00  0.0000000000E+00
                       0.0000000000E+00  0.0000000000E+00  0.0000000000E+00
                       0.0000000000E+00  0.0000000000E+00  0.0000000000E+00
                       0.0000000000E+00  0.0000000000E+00  0.0000000000E+00
                       0.0000000000E+00  0.0000000000E+00  0.0000000000E+00
                       0.0000000000E+00  0.0000000000E+00  0.0000000000E+00
                       0.0000000000E+00  0.0000000000E+00  0.0000000000E+00
                       0.0000000000E+00  0.0000000000E+00  0.0000000000E+00
                       0.0000000000E+00  0.0000000000E+00  0.0000000000E+00
                       0.0000000000E+00  0.0000000000E+00  0.0000000000E+00
                       0.0000000000E+00  0.0000000000E+00  0.0000000000E+00
                       0.0000000000E+00  0.0000000000E+00  0.0000000000E+00
                       0.0000000000E+00  0.0000000000E+00  0.0000000000E+00
                       0.0000000000E+00  0.0000000000E+00  0.0000000000E+00
                       0.0000000000E+00  0.0000000000E+00  0.0000000000E+00
                       0.0000000000E+00  0.0000000000E+00  0.0000000000E+00
           strten     -2.2218286451E-06 -1.7540518168E-06 -7.5998406483E-06
                       0.0000000000E+00  0.0000000000E+00 -1.4288455761E-06
           symrel      1  0  0   0  1  0   0  0  1      -1  0  0   0 -1  0   0  0 -1
                      -1  0  0   0 -1  0   0  0  1       1  0  0   0  1  0   0  0 -1
            tnons      0.0000000  0.0000000  0.0000000    -0.0000000  0.0000000  0.3333333
                      -0.0000000  0.0000000  0.0000000     0.0000000  0.0000000  0.3333333
           toldff      1.00000000E-04
           tolmxf      1.00000000E-03
            typat      1  2  2  2  2  2  3  3  3  3  3  3  3  3  3  3  3  3  4  4
                       4  4  4  4  4  4  4  4  4  4  5  5  5  5  5  5  5  5  5  5
                       5  5  6  6  6  6  6  6  6  6  6  6  6  6
            upawu      2.57245278E-01  0.00000000E+00  0.00000000E+00  0.00000000E+00  0.00000000E+00  0.00000000E+00 Hartree
          usepawu           1
           useylm           1
         wfoptalg         114
           xangst      3.9296744939E+00  1.9282971441E-05  1.5949858836E+00
                       3.9296744939E+00  1.9282971441E-05  4.7852586523E+00
                       3.9296744939E+00  1.9282971441E-05  7.9746284147E+00
                       1.9282971440E-05  3.9295139259E+00  1.0070133875E-04
                       1.9282971440E-05  3.9295139259E+00  3.1898710659E+00
                       1.9282971440E-05  3.9295139259E+00  6.3799435335E+00
                       9.4786464218E-01  6.5171786892E+00  1.5949858836E+00
                       9.4801788689E-01  6.5162001981E+00  4.7870264590E+00
                       9.4801788689E-01  6.5162001981E+00  7.9728606081E+00
                       6.9115229115E+00  1.3418877286E+00  1.5949858836E+00
                       6.9113696668E+00  1.3428662197E+00  4.7870264590E+00
                       6.9113696668E+00  1.3428662197E+00  7.9728606081E+00
                       1.3416373448E+00  9.4917149380E-01 -1.4768589189E-04
                       1.3416373448E+00  9.4917149380E-01  3.1901194531E+00
                       1.3423395814E+00  9.4955337879E-01  6.3799435335E+00
                       6.5177502088E+00  6.9098949240E+00 -1.4768589189E-04
                       6.5177502088E+00  6.9098949240E+00  3.1901194531E+00
                       6.5170479723E+00  6.9095130390E+00  6.3799435335E+00
                       2.7468879030E+00  5.3755672547E+00  4.4001437477E-04
                       2.7468879030E+00  5.3755672547E+00  3.1895317529E+00
                       2.7481203507E+00  5.3763059664E+00  6.3799435335E+00
                       5.1124996507E+00  2.4834991631E+00  4.4001437477E-04
                       5.1124996507E+00  2.4834991631E+00  3.1895317529E+00
                       5.1112672029E+00  2.4827604514E+00  6.3799435335E+00
                       2.4839829067E+00  2.7465922581E+00  1.5949858836E+00
                       2.4831428826E+00  2.7490645109E+00  4.7864781739E+00
                       2.4831428826E+00  2.7490645109E+00  7.9734088932E+00
                       5.3754046470E+00  5.1124741597E+00  1.5949858836E+00
                       5.3762446710E+00  5.1100019069E+00  4.7864781739E+00
                       5.3762446710E+00  5.1100019069E+00  7.9734088932E+00
                       4.5867636600E+00  5.7784624502E+00 -1.9742568788E-03
                       4.5867636600E+00  5.7784624502E+00  3.1919460241E+00
                       4.5871385003E+00  5.7819031177E+00  6.3799435335E+00
                       3.2726238936E+00  2.0806039676E+00 -1.9742568788E-03
                       3.2726238936E+00  2.0806039676E+00  3.1919460241E+00
                       3.2722490534E+00  2.0771633001E+00  6.3799435335E+00
                       2.0765953993E+00  4.5862688590E+00  1.5949858836E+00
                       2.0768961782E+00  4.5877495014E+00  4.7852732730E+00
                       2.0768961782E+00  4.5877495014E+00  7.9746137941E+00
                       5.7827921543E+00  3.2727975588E+00  1.5949858836E+00
                       5.7824913754E+00  3.2713169164E+00  4.7852732730E+00
                       5.7824913754E+00  3.2713169164E+00  7.9746137941E+00
                       1.9380724746E+00  6.9965611826E+00 -2.5520761609E-03
                       1.9380724746E+00  6.9965611826E+00  3.1925238434E+00
                       1.9448465582E+00  6.9991034016E+00  6.3799435335E+00
                       5.9213150791E+00  8.6250523521E-01 -2.5520761609E-03
                       5.9213150791E+00  8.6250523521E-01  3.1925238434E+00
                       5.9145409954E+00  8.5996301621E-01  6.3799435335E+00
                       8.6202576522E-01  1.9435889268E+00  1.5949858836E+00
                       8.6136782531E-01  1.9450876849E+00  4.7857510262E+00
                       8.6136782531E-01  1.9450876849E+00  7.9741360408E+00
                       6.9973617884E+00  5.9154774910E+00  1.5949858836E+00
                       6.9980197283E+00  5.9139787329E+00  4.7857510262E+00
                       6.9980197283E+00  5.9139787329E+00  7.9741360408E+00
            xcart      7.4260085848E+00  3.6439535052E-05  3.0140865059E+00
                       7.4260085848E+00  3.6439535052E-05  9.0428283279E+00
                       7.4260085848E+00  3.6439535052E-05  1.5069863715E+01
                       3.6439535051E-05  7.4257051554E+00  1.9029795145E-04
                       3.6439535051E-05  7.4257051554E+00  6.0279827138E+00
                       3.6439535051E-05  7.4257051554E+00  1.2056346022E+01
                       1.7912045848E+00  1.2315682882E+01  3.0140865059E+00
                       1.7914941753E+00  1.2313833802E+01  9.0461689983E+00
                       1.7914941753E+00  1.2313833802E+01  1.5066523045E+01
                       1.3060885464E+01  2.5358003081E+00  3.0140865059E+00
                       1.3060595873E+01  2.5376493883E+00  9.0461689983E+00
                       1.3060595873E+01  2.5376493883E+00  1.5066523045E+01
                       2.5353271514E+00  1.7936741764E+00 -2.7908588936E-04
                       2.5353271514E+00  1.7936741764E+00  6.0284520976E+00
                       2.5366541862E+00  1.7943958345E+00  1.2056346022E+01
                       1.2316762897E+01  1.3057809013E+01 -2.7908588936E-04
                       1.2316762897E+01  1.3057809013E+01  6.0284520976E+00
                       1.2315435862E+01  1.3057087355E+01  1.2056346022E+01
                       5.1908658544E+00  1.0158349920E+01  8.3150666285E-04
                       5.1908658544E+00  1.0158349920E+01  6.0273415051E+00
                       5.1931948431E+00  1.0159745883E+01  1.2056346022E+01
                       9.6612241943E+00  4.6931332696E+00  8.3150666285E-04
                       9.6612241943E+00  4.6931332696E+00  6.0273415051E+00
                       9.6588952055E+00  4.6917373066E+00  1.2056346022E+01
                       4.6940474124E+00  5.1903071666E+00  3.0140865059E+00
                       4.6924599970E+00  5.1949790473E+00  9.0451328897E+00
                       4.6924599970E+00  5.1949790473E+00  1.5067559154E+01
                       1.0158042636E+01  9.6611760233E+00  3.0140865059E+00
                       1.0159630052E+01  9.6565041425E+00  9.0451328897E+00
                       1.0159630052E+01  9.6565041425E+00  1.5067559154E+01
                       8.6677271537E+00  1.0919711500E+01 -3.7308048169E-03
                       8.6677271537E+00  1.0919711500E+01  6.0319038165E+00
                       8.6684354991E+00  1.0926213419E+01  1.2056346022E+01
                       6.1843628949E+00  3.9317716898E+00 -3.7308048169E-03
                       6.1843628949E+00  3.9317716898E+00  6.0319038165E+00
                       6.1836545495E+00  3.9252697705E+00  1.2056346022E+01
                       3.9241965936E+00  8.6667921154E+00  3.0140865059E+00
                       3.9247649833E+00  8.6695901239E+00  9.0428559569E+00
                       3.9247649833E+00  8.6695901239E+00  1.5069836086E+01
                       1.0927893455E+01  6.1846910745E+00  3.0140865059E+00
                       1.0927325065E+01  6.1818930659E+00  9.0428559569E+00
                       1.0927325065E+01  6.1818930659E+00  1.5069836086E+01
                       3.6624262027E+00  1.3221584507E+01 -4.8227250144E-03
                       3.6624262027E+00  1.3221584507E+01  6.0329957367E+00
                       3.6752273655E+00  1.3226388605E+01  1.2056346022E+01
                       1.1189663846E+01  1.6298986827E+00 -4.8227250144E-03
                       1.1189663846E+01  1.6298986827E+00  6.0329957367E+00
                       1.1176862683E+01  1.6250945850E+00  1.2056346022E+01
                       1.6289926158E+00  3.6728507865E+00  3.0140865059E+00
                       1.6277492895E+00  3.6756830290E+00  9.0437587797E+00
                       1.6277492895E+00  3.6756830290E+00  1.5068933264E+01
                       1.3223097433E+01  1.1178632403E+01  3.0140865059E+00
                       1.3224340759E+01  1.1175800161E+01  9.0437587797E+00
                       1.3224340759E+01  1.1175800161E+01  1.5068933264E+01
             xred      5.0000000000E-01  4.1961550042E-23  1.6666666670E-01
                       5.0000000000E-01  4.1961550045E-23  5.0003145299E-01
                       5.0000000000E-01  4.1961550034E-23  8.3330188041E-01
                      -1.1130196213E-16  5.0000000000E-01  1.0522699062E-05
                      -1.1130196213E-16  5.0000000000E-01  3.3332281070E-01
                      -1.1130196213E-16  5.0000000000E-01  6.6666666670E-01
                       1.2059938584E-01  8.2925956760E-01  1.6666666670E-01
                       1.2061888485E-01  8.2913506214E-01  5.0021617841E-01
                       1.2061888485E-01  8.2913506214E-01  8.3311715499E-01
                       8.7940061416E-01  1.7074043240E-01  1.6666666670E-01
                       8.7938111515E-01  1.7086493786E-01  5.0021617841E-01
                       8.7938111515E-01  1.7086493786E-01  8.3311715499E-01
                       1.7070532040E-01  1.2077383212E-01 -1.5432309196E-05
                       1.7070532040E-01  1.2077383212E-01  3.3334876571E-01
                       1.7079467063E-01  1.2082242357E-01  6.6666666670E-01
                       8.2929467960E-01  8.7922616788E-01 -1.5432309196E-05
                       8.2929467960E-01  8.7922616788E-01  3.3334876571E-01
                       8.2920532937E-01  8.7917757643E-01  6.6666666670E-01
                       3.4950242422E-01  6.8399729293E-01  4.5978920501E-05
                       3.4950242422E-01  6.8399729293E-01  3.3328735448E-01
                       3.4965923671E-01  6.8409128748E-01  6.6666666670E-01
                       6.5049757578E-01  3.1600270707E-01  4.5978920501E-05
                       6.5049757578E-01  3.1600270707E-01  3.3328735448E-01
                       6.5034076329E-01  3.1590871252E-01  6.6666666670E-01
                       3.1605282225E-01  3.4948089268E-01  1.6666666670E-01
                       3.1594593856E-01  3.4979546809E-01  5.0015888584E-01
                       3.1594593856E-01  3.4979546809E-01  8.3317444756E-01
                       6.8394717775E-01  6.5051910732E-01  1.6666666670E-01
                       6.8405406144E-01  6.5020453191E-01  5.0015888584E-01
                       6.8405406144E-01  6.5020453191E-01  8.3317444756E-01
                       5.8360244737E-01  7.3526141552E-01 -2.0629826043E-04
                       5.8360244737E-01  7.3526141552E-01  3.3353963166E-01
                       5.8365013877E-01  7.3569921340E-01  6.6666666670E-01
                       4.1639755263E-01  2.6473858448E-01 -2.0629826043E-04
                       4.1639755263E-01  2.6473858448E-01  3.3353963166E-01
                       4.1634986123E-01  2.6430078660E-01  6.6666666670E-01
                       2.6421690866E-01  5.8356564650E-01  1.6666666670E-01
                       2.6425517794E-01  5.8375404651E-01  5.0003298076E-01
                       2.6425517794E-01  5.8375404651E-01  8.3330035264E-01
                       7.3578309134E-01  4.1643435350E-01  1.6666666670E-01
                       7.3574482206E-01  4.1624595349E-01  5.0003298076E-01
                       7.3574482206E-01  4.1624595349E-01  8.3330035264E-01
                       2.4659016212E-01  8.9025663282E-01 -2.6667698522E-04
                       2.4659016212E-01  8.9025663282E-01  3.3360001039E-01
                       2.4745207462E-01  8.9058010613E-01  6.6666666670E-01
                       7.5340983788E-01  1.0974336718E-01 -2.6667698522E-04
                       7.5340983788E-01  1.0974336718E-01  3.3360001039E-01
                       7.5254792538E-01  1.0941989387E-01  6.6666666670E-01
                       1.0968036016E-01  2.4730599426E-01  1.6666666670E-01
                       1.0959664493E-01  2.4749669996E-01  5.0008290317E-01
                       1.0959664493E-01  2.4749669996E-01  8.3325043023E-01
                       8.9031963984E-01  7.5269400574E-01  1.6666666670E-01
                       8.9040335507E-01  7.5250330004E-01  5.0008290317E-01
                       8.9040335507E-01  7.5250330004E-01  8.3325043023E-01
            znucl       63.00000   38.00000    3.00000   13.00000    7.00000    8.00000

- Timing analysis has been suppressed with timopt=0

 Suggested references for the acknowledgment of ABINIT usage.

 Calculation completed.
.Delivered   0 WARNINGs and  19 COMMENTs to log file.