.Version 9.10.5 of ABINIT

 ABINIT is a project of the Universite Catholique de Louvain,
 Corning Inc. and other collaborators, see ~abinit/doc/developers/contributors.txt .
 acknowledgments of the ABINIT effort.

.Starting date : Fri 15 Mar 2024.
- ( at 14h56 )

 === Build Information ===
  Version       : 9.10.5
  Build target  : x86_64_linux_gnu12.3
  Build date    : 20240314

 === Optimizations ===
  Debug level        : basic
  Optimization level : standard
  Architecture       : amd_epyc

 === Multicore ===
  Parallel build : yes
  Parallel I/O   : yes
  openMP support : no
  GPU support    :

 === Connectors / Fallbacks ===
  LINALG flavor  : openblas
  FFT flavor     : fftw3
  HDF5           : yes
  NetCDF         : yes
  NetCDF Fortran : yes
  Wannier90      : no

 === Experimental features ===
  Exports             :
  GW double-precision :

 Default optimizations:
   -O2 -mtune=native -march=native

 Optimizations for 43_ptgroups:
   -O0

 CPP options activated during the build:

                    CC_GNU                   CXX_GNU                    FC_GNU

 HAVE_FC_ALLOCATABLE_DT...             HAVE_FC_ASYNC         HAVE_FC_BACKTRACE

  HAVE_FC_COMMAND_ARGUMENT      HAVE_FC_COMMAND_LINE        HAVE_FC_CONTIGUOUS

           HAVE_FC_CPUTIME              HAVE_FC_EXIT             HAVE_FC_FLUSH

             HAVE_FC_GAMMA            HAVE_FC_GETENV   HAVE_FC_IEEE_ARITHMETIC

   HAVE_FC_IEEE_EXCEPTIONS          HAVE_FC_INT_QUAD             HAVE_FC_IOMSG

     HAVE_FC_ISO_C_BINDING  HAVE_FC_ISO_FORTRAN_2008        HAVE_FC_LONG_LINES

        HAVE_FC_MOVE_ALLOC  HAVE_FC_ON_THE_FLY_SHAPE           HAVE_FC_PRIVATE

         HAVE_FC_PROTECTED           HAVE_FC_SHIFTLR         HAVE_FC_STREAM_IO

            HAVE_FC_SYSTEM                HAVE_FFTW3          HAVE_FORTRAN2003

                 HAVE_HDF5             HAVE_HDF5_MPI        HAVE_LIBPAW_ABINIT

                  HAVE_MPI                 HAVE_MPI2         HAVE_MPI2_INPLACE

       HAVE_MPI_IALLGATHER       HAVE_MPI_IALLREDUCE        HAVE_MPI_IALLTOALL

       HAVE_MPI_IALLTOALLV           HAVE_MPI_IBCAST         HAVE_MPI_IGATHERV

        HAVE_MPI_INTEGER16               HAVE_MPI_IO HAVE_MPI_TYPE_CREATE_S...

               HAVE_NETCDF       HAVE_NETCDF_FORTRAN   HAVE_NETCDF_FORTRAN_MPI

           HAVE_NETCDF_MPI             HAVE_OS_LINUX         HAVE_TIMER_ABINIT

- input  file    -> /gpfs/projects/acad/leds/DataBase_examples/adding_entry_to_DB/flow_lumi/w0/t2/run.abi
- output file    -> /gpfs/projects/acad/leds/DataBase_examples/adding_entry_to_DB/flow_lumi/w0/t2/run.abo
- root for input  files -> indata/in
- root for output files -> outdata/out

-instrng: 228 lines of input have been read from file /gpfs/projects/acad/leds/DataBase_examples/adding_entry_to_DB/flow_lumi/w0/t2/run.abi

 For atom type 1, psp file is /gpfs/home/acad/ucl-modl/jbouq/paw-sr-11_pbe_standard_xml/Eu.xml
 For atom type 2, psp file is /gpfs/home/acad/ucl-modl/jbouq/paw-sr-11_pbe_standard_xml/Sr.xml
 For atom type 3, psp file is /gpfs/home/acad/ucl-modl/jbouq/paw-sr-11_pbe_standard_xml/Li.xml
 For atom type 4, psp file is /gpfs/home/acad/ucl-modl/jbouq/paw-sr-11_pbe_standard_xml/Al.xml
 For atom type 5, psp file is /gpfs/home/acad/ucl-modl/jbouq/paw-sr-11_pbe_standard_xml/N.xml
 For atom type 6, psp file is /gpfs/home/acad/ucl-modl/jbouq/paw-sr-11_pbe_standard_xml/O.xml
- inpspheads : Reading pseudopotential header in XML form from
-   /gpfs/home/acad/ucl-modl/jbouq/paw-sr-11_pbe_standard_xml/Eu.xml
- inpspheads : Reading pseudopotential header in XML form from
-   /gpfs/home/acad/ucl-modl/jbouq/paw-sr-11_pbe_standard_xml/Sr.xml
- inpspheads : Reading pseudopotential header in XML form from
-   /gpfs/home/acad/ucl-modl/jbouq/paw-sr-11_pbe_standard_xml/Li.xml
- inpspheads : Reading pseudopotential header in XML form from
-   /gpfs/home/acad/ucl-modl/jbouq/paw-sr-11_pbe_standard_xml/Al.xml
- inpspheads : Reading pseudopotential header in XML form from
-   /gpfs/home/acad/ucl-modl/jbouq/paw-sr-11_pbe_standard_xml/N.xml
- inpspheads : Reading pseudopotential header in XML form from
-   /gpfs/home/acad/ucl-modl/jbouq/paw-sr-11_pbe_standard_xml/O.xml

 inpspheads: deduce mpsang = 4, n1xccc = 1.

 invars1m : enter jdtset= 0

 symlatt: the Bravais lattice is oP (primitive orthorhombic)
  xred   is defined in input file
 ingeo: takes atomic coordinates from input array xred

--- !COMMENT
src_file: m_ingeo.F90
src_line: 902
message: |
    The tolerance on symmetries =   1.000E-05 is bigger than 1.0e-8.
    In order to avoid spurious effects, the atomic coordinates have been
    symmetrized before storing them in the dataset internal variable.
    So, do not be surprised by the fact that your input variables (xcart, xred, ...)
    do not correspond exactly to the ones echoed by ABINIT, the latter being used to do the calculations.
    This is not a problem per se.
    Still, in order to avoid this symmetrization (e.g. for specific debugging/development), decrease tolsym to 1.0e-8 or lower,
    or (much preferred) use input primitive vectors that are accurate to better than 1.0e-8.
    This message will only be printed once, even if there are other datasets where tolsym is bigger than 1.0e-8.
...

 symlatt: the Bravais lattice is oP (primitive orthorhombic)

 symlatt: the Bravais lattice is oP (primitive orthorhombic)

--- !COMMENT
src_file: m_symfind.F90
src_line: 1014
message: |
    The Bravais lattice determined only from the primitive
    vectors, bravais(1)=  3, is more symmetric
    than the real one, iholohedry=  2, obtained by taking into
    account the atomic positions. Start deforming the primitive vector set.
...

 symlatt: the Bravais lattice is mP (primitive monoclinic)
 symspgr: spgroup=  10  P2/m   (=C2h^1)
 Perdew, Burke & Ernzerhof
 J. P. Perdew, K. Burke, and M. Ernzerhof.,  Phys. Rev. Lett. 77, 3865 (1996)
 J. P. Perdew, K. Burke, and M. Ernzerhof.,  Phys. Rev. Lett. 78, 1396 (1997)
 Perdew, Burke & Ernzerhof
 J. P. Perdew, K. Burke, and M. Ernzerhof.,  Phys. Rev. Lett. 77, 3865 (1996)
 J. P. Perdew, K. Burke, and M. Ernzerhof.,  Phys. Rev. Lett. 78, 1396 (1997)

 invars2: reading occ(nband*nkpt*nsppol) explicitly
 LMac pawujat is:            1
 getmpw sequential formula gave: 3013

 Searching for all possible proc distributions for this input with #CPUs<=128:

 |    1<<    2|    1<<   10|    1<<  128|    1<<  180|    1<<  128|  <=   128|
 |           2|           6|          10|           6|         120|    83.354|
 |           2|           4|          15|           4|         120|    82.613|
 |           2|          10|           6|          10|         120|    81.088|
 |           1|           8|          15|           4|         120|    80.868|
 |           1|           4|          30|           2|         120|    78.725|
 |           2|           9|           6|          10|         108|    73.681|
 |           2|          10|           6|           6|         120|    71.059|
 |           2|           2|          30|           2|         120|    70.766|
 |           2|           5|          10|           6|         100|    70.107|
 |           2|           4|          15|           6|         120|    67.834|
 Only the best possible choices for nproc are printed...

 >>> Possible (best) choices for the number of bands (nband) are:
     with: np_spkpt=2 npfft=6
 >>> The present nband value (   180) seems to be a good choice!

getng is called for the coarse grid:
 For input ecut=  1.000000E+01 best grid ngfft=      45      48      54
       max ecut=  1.082790E+01

 ==== FFT mesh ====
  FFT mesh divisions ........................    45   48   54
  Augmented FFT divisions ...................    45   49   54
  FFT algorithm .............................   312
  FFT cache size ............................    16
 getmpw: optimal value of mpw= 51
getng is called for the fine grid:
 Using supplied coarse mesh as initial guess.
 For input ecut=  2.000000E+01 best grid ngfft=      60      60      90
       max ecut=  2.013452E+01

 ==== FFT mesh ====
  FFT mesh divisions ........................    60   60   90
  Augmented FFT divisions ...................    61   61   90
  FFT algorithm .............................   312
  FFT cache size ............................    16

 Symmetries : space group P2/m (# 10); Bravais mP (primitive monocl.)

 getdim_nloc: deduce lmnmax  =  32, lnmax  =   8,
                      lmnmaxso=  32, lnmaxso=   8.
     intxc =       0    ionmov =       0      iscf =      17    lmnmax =      32
     lnmax =       8     mgfft =      54  mpssoang =       4    mqgrid =    3641
     natom =      54  nloc_mem =       2    nspden =       2   nspinor =       1
    nsppol =       2      nsym =       4    n1xccc =       1    ntypat =       6
    occopt =       2   xclevel =       2
-    mband =         180        mffmem =           1         mkmem =           1
       mpw =          51          nfft =       19440          nkpt =           1
Pmy_natom=         3
 PAW method is used; the additional fine FFT grid is defined by:
   mgfftf=        90    nfftf =     54000
  Rough estimation (10% accuracy) of disk space for files :

 The job will continue.
------------- Echo of variables that govern the present computation ------------
-
- outvars: echo of selected default values
-   iomode0 =  0 , fftalg0 =312 , wfoptalg0 = 10
-
- outvars: echo of global parameters not present in the input file
-  max_nthreads =    0
-
 -outvars: echo values of preprocessed input variables --------

 These variables are accessible in NetCDF format (outdata/out_OUT.nc)

-          iomode           1
            acell      1.0000000000E+00  1.0000000000E+00  1.0000000000E+00 Bohr
              amu      1.51965000E+02  8.76200000E+01  6.94100000E+00
                       2.69815390E+01  1.40067400E+01  1.59994000E+01
        autoparal           1
           bandpp           6
          chkprim           0
      chksymbreak           0
     densfor_pred           6
           diemac      5.00000000E+00
             ecut      1.00000000E+01 Hartree
-          fftalg         312
           irdden           1
           istwfk        2
              ixc     -101130
            jpawu      2.57245278E-02  0.00000000E+00  0.00000000E+00  0.00000000E+00  0.00000000E+00  0.00000000E+00 Hartree
         kptrlatt        1    0    0      0    1    0      0    0    1
          kptrlen      1.48514103E+01
            lpawu           3      -1      -1      -1      -1      -1
P           mkmem           1
            natom          54
            nband         180     180
           nbdbuf          30
            ngfft          45      48      54
          ngfftdg          60      60      90
             nkpt           1
-          npband          10
-           npfft           6
-        np_spkpt           2
           nspden           2
           nsppol           2
            nstep         300
             nsym           4
           ntypat           6
              occ      1.000000  1.000000  1.000000  1.000000  1.000000  1.000000
                       1.000000  1.000000  1.000000  1.000000  1.000000  1.000000
[...]
                       0.0000000000E+00  0.0000000000E+00  0.0000000000E+00
                       0.0000000000E+00  0.0000000000E+00  0.0000000000E+00
                       0.0000000000E+00  0.0000000000E+00  0.0000000000E+00
                       0.0000000000E+00  0.0000000000E+00  0.0000000000E+00
                       0.0000000000E+00  0.0000000000E+00  0.0000000000E+00
                       0.0000000000E+00  0.0000000000E+00  0.0000000000E+00
                       0.0000000000E+00  0.0000000000E+00  0.0000000000E+00
                       0.0000000000E+00  0.0000000000E+00  0.0000000000E+00
                       0.0000000000E+00  0.0000000000E+00  0.0000000000E+00
                       0.0000000000E+00  0.0000000000E+00  0.0000000000E+00
                       0.0000000000E+00  0.0000000000E+00  0.0000000000E+00
                       0.0000000000E+00  0.0000000000E+00  0.0000000000E+00
                       0.0000000000E+00  0.0000000000E+00  0.0000000000E+00
                       0.0000000000E+00  0.0000000000E+00  0.0000000000E+00
                       0.0000000000E+00  0.0000000000E+00  0.0000000000E+00
                       0.0000000000E+00  0.0000000000E+00  0.0000000000E+00
                       0.0000000000E+00  0.0000000000E+00  0.0000000000E+00
                       0.0000000000E+00  0.0000000000E+00  0.0000000000E+00
                       0.0000000000E+00  0.0000000000E+00  0.0000000000E+00
                       0.0000000000E+00  0.0000000000E+00  0.0000000000E+00
                       0.0000000000E+00  0.0000000000E+00  0.0000000000E+00
                       0.0000000000E+00  0.0000000000E+00  0.0000000000E+00
                       0.0000000000E+00  0.0000000000E+00  0.0000000000E+00
                       0.0000000000E+00  0.0000000000E+00  0.0000000000E+00
                       0.0000000000E+00  0.0000000000E+00  0.0000000000E+00
                       0.0000000000E+00  0.0000000000E+00  0.0000000000E+00
                       0.0000000000E+00  0.0000000000E+00  0.0000000000E+00
                       0.0000000000E+00  0.0000000000E+00  0.0000000000E+00
                       0.0000000000E+00  0.0000000000E+00  0.0000000000E+00
                       0.0000000000E+00  0.0000000000E+00  0.0000000000E+00
                       0.0000000000E+00  0.0000000000E+00  0.0000000000E+00
                       0.0000000000E+00  0.0000000000E+00  0.0000000000E+00
                       0.0000000000E+00  0.0000000000E+00  0.0000000000E+00
                       0.0000000000E+00  0.0000000000E+00  0.0000000000E+00
                       0.0000000000E+00  0.0000000000E+00  0.0000000000E+00
           strten      2.2598845477E-03  2.2604738123E-03  2.2971927859E-03
                       0.0000000000E+00  0.0000000000E+00 -1.3200111413E-06
           symrel      1  0  0   0  1  0   0  0  1      -1  0  0   0 -1  0   0  0 -1
                      -1  0  0   0 -1  0   0  0  1       1  0  0   0  1  0   0  0 -1
            tnons      0.0000000  0.0000000  0.0000000    -0.0000000  0.0000000  0.3333333
                      -0.0000000  0.0000000  0.0000000     0.0000000  0.0000000  0.3333333
           toldfe      1.00000000E-05 Hartree
            typat      1  2  2  2  2  2  3  3  3  3  3  3  3  3  3  3  3  3  4  4
                       4  4  4  4  4  4  4  4  4  4  5  5  5  5  5  5  5  5  5  5
                       5  5  6  6  6  6  6  6  6  6  6  6  6  6
            upawu      2.57245278E-01  0.00000000E+00  0.00000000E+00  0.00000000E+00  0.00000000E+00  0.00000000E+00 Hartree
          usepawu           1
           useylm           1
         wfoptalg         114
           xangst      3.9296744939E+00  1.9282971442E-05  1.5949858837E+00
                       3.9296744939E+00  1.9282971442E-05  4.7852586526E+00
                       3.9296744939E+00  1.9282971442E-05  7.9746284148E+00
                       1.9282971441E-05  3.9295139260E+00  1.0070134324E-04
                       1.9282971441E-05  3.9295139260E+00  3.1898710660E+00
                       1.9282971441E-05  3.9295139260E+00  6.3799435337E+00
                       9.4786464191E-01  6.5171786893E+00  1.5949858837E+00
                       9.4801788694E-01  6.5162001979E+00  4.7870264590E+00
                       9.4801788694E-01  6.5162001979E+00  7.9728606084E+00
                       6.9115229119E+00  1.3418877286E+00  1.5949858837E+00
                       6.9113696669E+00  1.3428662200E+00  4.7870264590E+00
                       6.9113696669E+00  1.3428662200E+00  7.9728606084E+00
                       1.3416373449E+00  9.4917149367E-01 -1.4768584789E-04
                       1.3416373449E+00  9.4917149367E-01  3.1901194532E+00
                       1.3423395811E+00  9.4955337907E-01  6.3799435337E+00
                       6.5177502090E+00  6.9098949242E+00 -1.4768584789E-04
                       6.5177502090E+00  6.9098949242E+00  3.1901194532E+00
                       6.5170479727E+00  6.9095130388E+00  6.3799435337E+00
                       2.7468879029E+00  5.3755672544E+00  4.4001427669E-04
                       2.7468879029E+00  5.3755672544E+00  3.1895317530E+00
                       2.7481203507E+00  5.3763059667E+00  6.3799435337E+00
                       5.1124996509E+00  2.4834991634E+00  4.4001427669E-04
                       5.1124996509E+00  2.4834991634E+00  3.1895317530E+00
                       5.1112672031E+00  2.4827604512E+00  6.3799435337E+00
                       2.4839829063E+00  2.7465922583E+00  1.5949858837E+00
                       2.4831428830E+00  2.7490645110E+00  4.7864781737E+00
                       2.4831428830E+00  2.7490645110E+00  7.9734088937E+00
                       5.3754046475E+00  5.1124741596E+00  1.5949858837E+00
                       5.3762446709E+00  5.1100019069E+00  4.7864781737E+00
                       5.3762446709E+00  5.1100019069E+00  7.9734088937E+00
                       4.5867636604E+00  5.7784624501E+00 -1.9742570682E-03
                       4.5867636604E+00  5.7784624501E+00  3.1919460244E+00
                       4.5871385006E+00  5.7819031178E+00  6.3799435337E+00
                       3.2726238935E+00  2.0806039678E+00 -1.9742570682E-03
                       3.2726238935E+00  2.0806039678E+00  3.1919460244E+00
                       3.2722490532E+00  2.0771633001E+00  6.3799435337E+00
                       2.0765953997E+00  4.5862688591E+00  1.5949858837E+00
                       2.0768961780E+00  4.5877495014E+00  4.7852732735E+00
                       2.0768961780E+00  4.5877495014E+00  7.9746137939E+00
                       5.7827921541E+00  3.2727975588E+00  1.5949858837E+00
                       5.7824913758E+00  3.2713169165E+00  4.7852732735E+00
                       5.7824913758E+00  3.2713169165E+00  7.9746137939E+00
                       1.9380724745E+00  6.9965611825E+00 -2.5520762317E-03
                       1.9380724745E+00  6.9965611825E+00  3.1925238436E+00
                       1.9448465581E+00  6.9991034015E+00  6.3799435337E+00
                       5.9213150793E+00  8.6250523535E-01 -2.5520762317E-03
                       5.9213150793E+00  8.6250523535E-01  3.1925238436E+00
                       5.9145409957E+00  8.5996301644E-01  6.3799435337E+00
                       8.6202576552E-01  1.9435889271E+00  1.5949858837E+00
                       8.6136782512E-01  1.9450876853E+00  4.7857510266E+00
                       8.6136782512E-01  1.9450876853E+00  7.9741360407E+00
                       6.9973617883E+00  5.9154774908E+00  1.5949858837E+00
                       6.9980197287E+00  5.9139787326E+00  4.7857510266E+00
                       6.9980197287E+00  5.9139787326E+00  7.9741360407E+00
            xcart      7.4260085849E+00  3.6439535053E-05  3.0140865059E+00
                       7.4260085849E+00  3.6439535053E-05  9.0428283284E+00
                       7.4260085849E+00  3.6439535053E-05  1.5069863715E+01
                       3.6439535052E-05  7.4257051555E+00  1.9029795994E-04
                       3.6439535052E-05  7.4257051555E+00  6.0279827139E+00
                       3.6439535052E-05  7.4257051555E+00  1.2056346022E+01
                       1.7912045842E+00  1.2315682882E+01  3.0140865059E+00
                       1.7914941754E+00  1.2313833801E+01  9.0461689984E+00
                       1.7914941754E+00  1.2313833801E+01  1.5066523045E+01
                       1.3060885465E+01  2.5358003081E+00  3.0140865059E+00
                       1.3060595874E+01  2.5376493890E+00  9.0461689984E+00
                       1.3060595874E+01  2.5376493890E+00  1.5066523045E+01
                       2.5353271515E+00  1.7936741762E+00 -2.7908580621E-04
                       2.5353271515E+00  1.7936741762E+00  6.0284520977E+00
                       2.5366541857E+00  1.7943958350E+00  1.2056346022E+01
                       1.2316762898E+01  1.3057809014E+01 -2.7908580621E-04
                       1.2316762898E+01  1.3057809014E+01  6.0284520977E+00
                       1.2315435863E+01  1.3057087355E+01  1.2056346022E+01
                       5.1908658542E+00  1.0158349920E+01  8.3150647750E-04
                       5.1908658542E+00  1.0158349920E+01  6.0273415054E+00
                       5.1931948430E+00  1.0159745884E+01  1.2056346022E+01
                       9.6612241947E+00  4.6931332702E+00  8.3150647750E-04
                       9.6612241947E+00  4.6931332702E+00  6.0273415054E+00
                       9.6588952060E+00  4.6917373064E+00  1.2056346022E+01
                       4.6940474118E+00  5.1903071669E+00  3.0140865059E+00
                       4.6924599976E+00  5.1949790475E+00  9.0451328893E+00
                       4.6924599976E+00  5.1949790475E+00  1.5067559155E+01
                       1.0158042637E+01  9.6611760230E+00  3.0140865059E+00
                       1.0159630051E+01  9.6565041425E+00  9.0451328893E+00
                       1.0159630051E+01  9.6565041425E+00  1.5067559155E+01
                       8.6677271543E+00  1.0919711500E+01 -3.7308051748E-03
                       8.6677271543E+00  1.0919711500E+01  6.0319038170E+00
                       8.6684354997E+00  1.0926213419E+01  1.2056346022E+01
                       6.1843628946E+00  3.9317716902E+00 -3.7308051748E-03
                       6.1843628946E+00  3.9317716902E+00  6.0319038170E+00
                       6.1836545492E+00  3.9252697705E+00  1.2056346022E+01
                       3.9241965943E+00  8.6667921154E+00  3.0140865059E+00
                       3.9247649829E+00  8.6695901239E+00  9.0428559579E+00
                       3.9247649829E+00  8.6695901239E+00  1.5069836086E+01
                       1.0927893455E+01  6.1846910746E+00  3.0140865059E+00
                       1.0927325066E+01  6.1818930661E+00  9.0428559579E+00
                       1.0927325066E+01  6.1818930661E+00  1.5069836086E+01
                       3.6624262025E+00  1.3221584507E+01 -4.8227251483E-03
                       3.6624262025E+00  1.3221584507E+01  6.0329957370E+00
                       3.6752273653E+00  1.3226388604E+01  1.2056346022E+01
                       1.1189663846E+01  1.6298986830E+00 -4.8227251483E-03
                       1.1189663846E+01  1.6298986830E+00  6.0329957370E+00
                       1.1176862684E+01  1.6250945855E+00  1.2056346022E+01
                       1.6289926163E+00  3.6728507871E+00  3.0140865059E+00
                       1.6277492891E+00  3.6756830296E+00  9.0437587805E+00
                       1.6277492891E+00  3.6756830296E+00  1.5068933263E+01
                       1.3223097433E+01  1.1178632403E+01  3.0140865059E+00
                       1.3224340760E+01  1.1175800160E+01  9.0437587805E+00
                       1.3224340760E+01  1.1175800160E+01  1.5068933263E+01
             xred      5.0000000000E-01  2.9463205325E-22  1.6666666670E-01
                       5.0000000000E-01  2.9463205325E-22  5.0003145300E-01
                       5.0000000000E-01  2.9463205325E-22  8.3330188040E-01
                      -5.5511151231E-17  5.0000000000E-01  1.0522699531E-05
                      -5.5511151231E-17  5.0000000000E-01  3.3332281070E-01
                      -5.5511151231E-17  5.0000000000E-01  6.6666666670E-01
                       1.2059938580E-01  8.2925956760E-01  1.6666666670E-01
                       1.2061888485E-01  8.2913506210E-01  5.0021617840E-01
                       1.2061888485E-01  8.2913506210E-01  8.3311715500E-01
                       8.7940061420E-01  1.7074043240E-01  1.6666666670E-01
                       8.7938111515E-01  1.7086493790E-01  5.0021617840E-01
                       8.7938111515E-01  1.7086493790E-01  8.3311715500E-01
                       1.7070532040E-01  1.2077383210E-01 -1.5432304598E-05
                       1.7070532040E-01  1.2077383210E-01  3.3334876570E-01
                       1.7079467060E-01  1.2082242360E-01  6.6666666670E-01
                       8.2929467960E-01  8.7922616790E-01 -1.5432304598E-05
                       8.2929467960E-01  8.7922616790E-01  3.3334876570E-01
                       8.2920532940E-01  8.7917757640E-01  6.6666666670E-01
                       3.4950242420E-01  6.8399729290E-01  4.5978910250E-05
                       3.4950242420E-01  6.8399729290E-01  3.3328735449E-01
                       3.4965923670E-01  6.8409128750E-01  6.6666666670E-01
                       6.5049757580E-01  3.1600270710E-01  4.5978910250E-05
                       6.5049757580E-01  3.1600270710E-01  3.3328735449E-01
                       6.5034076330E-01  3.1590871250E-01  6.6666666670E-01
                       3.1605282220E-01  3.4948089270E-01  1.6666666670E-01
                       3.1594593860E-01  3.4979546810E-01  5.0015888580E-01
                       3.1594593860E-01  3.4979546810E-01  8.3317444760E-01
                       6.8394717780E-01  6.5051910730E-01  1.6666666670E-01
                       6.8405406140E-01  6.5020453190E-01  5.0015888580E-01
                       6.8405406140E-01  6.5020453190E-01  8.3317444760E-01
                       5.8360244740E-01  7.3526141550E-01 -2.0629828022E-04
                       5.8360244740E-01  7.3526141550E-01  3.3353963168E-01
                       5.8365013880E-01  7.3569921340E-01  6.6666666670E-01
                       4.1639755260E-01  2.6473858450E-01 -2.0629828022E-04
                       4.1639755260E-01  2.6473858450E-01  3.3353963168E-01
                       4.1634986120E-01  2.6430078660E-01  6.6666666670E-01
                       2.6421690870E-01  5.8356564650E-01  1.6666666670E-01
                       2.6425517790E-01  5.8375404650E-01  5.0003298080E-01
                       2.6425517790E-01  5.8375404650E-01  8.3330035260E-01
                       7.3578309130E-01  4.1643435350E-01  1.6666666670E-01
                       7.3574482210E-01  4.1624595350E-01  5.0003298080E-01
                       7.3574482210E-01  4.1624595350E-01  8.3330035260E-01
                       2.4659016210E-01  8.9025663280E-01 -2.6667699261E-04
                       2.4659016210E-01  8.9025663280E-01  3.3360001039E-01
                       2.4745207460E-01  8.9058010610E-01  6.6666666670E-01
                       7.5340983790E-01  1.0974336720E-01 -2.6667699261E-04
                       7.5340983790E-01  1.0974336720E-01  3.3360001039E-01
                       7.5254792540E-01  1.0941989390E-01  6.6666666670E-01
                       1.0968036020E-01  2.4730599430E-01  1.6666666670E-01
                       1.0959664490E-01  2.4749670000E-01  5.0008290320E-01
                       1.0959664490E-01  2.4749670000E-01  8.3325043020E-01
                       8.9031963980E-01  7.5269400570E-01  1.6666666670E-01
                       8.9040335510E-01  7.5250330000E-01  5.0008290320E-01
                       8.9040335510E-01  7.5250330000E-01  8.3325043020E-01
            znucl       63.00000   38.00000    3.00000   13.00000    7.00000    8.00000

 Calculation completed.
.Delivered   0 WARNINGs and   0 COMMENTs to log file.

--- !FinalSummary
program: abinit
version: 9.10.5
start_datetime: Fri Mar 15 14:56:33 2024
end_datetime: Fri Mar 15 14:56:46 2024
overall_cpu_time:        1409.6
overall_wall_time:        1469.8
exit_requested_by_user: no
timelimit: 01:00:00 [hours]
pseudos:
    Eu  : e8cbabbafd0770971513c9a2f9d66997
    Sr  : 8d54325f2e386e603a788e5591ec9c3e
    Li  : 2b42cf0006b30297d03a5c0dddd0d05e
    Al  : 38ec013e55acb62b3c542f2043f7ec30
    N   : aea9139712748acddb702675698d6c10
    O   : 13afe03f4a9dc9f4272ab72f1e9ef09a
usepaw: 1
mpi_procs: 128
omp_threads: 1
num_warnings: 0
num_comments: 0
...